 C  F  H  N Si 
 1.0000000000000000
    15.0598001499999992    0.0000000000000000    0.0000000000000000
     0.0000000000000000   15.0598001499999992    0.0000000000000000
     0.0000000000000000    0.0000000000000000   40.0597991899999997
 C   F   H   N   Si 
   1   4  67 171 131
Cartesian
  4.2862357319999997 -0.8374334369999999 18.0874350700000015
  9.9564011673930235 12.2255980082143552 15.9518976335411136
  5.4457047950000002 -1.4687241879999999 18.5583489700000008
  4.4029325430000004  0.5147542778000000 18.5819661499999995
  3.0353920840000002  1.8779445669999999 16.7669686800000015
 10.3058945099999999 14.2504906200000008 17.1633581699999986
  5.1935499309999997 13.2754189199999999  5.1661042669999997
 13.2839649600000005 11.0587688499999999  5.1410175919999999
 10.1868950100000006 14.0540774600000002  6.6563521689999998
  9.4849900209999998 13.0256658200000004  4.8221491370000003
 11.2433137199999997 12.8958883300000000 16.4381173300000007
 10.6200670000000006  5.0386749039999996 11.6041763400000004
  7.9142261749999996  5.1167873530000003 10.8274417300000003
  2.3201930449999999  4.0047772090000002 16.9519066100000018
  3.3884806919999999 13.6859282400000009 18.4754768300000016
  9.2966727270000007  3.6535193690000001 11.3105999900000000
 11.7761444399999995 11.5182702100000007 17.1346243899999990
  7.2235159529999997  8.5569898720000008  6.8502199639999999
  7.3046823070000002 10.4328006200000001  4.6594570219999998
  2.1155570689999998  9.7631650010000008 17.3689646000000018
  6.3948591900000000  9.4838116120000002 17.6732296200000008
  9.0273930050000004  8.2815180040000005 18.5273874099999993
 10.1015959100000003  3.3411713089999999 16.0393705199999985
 12.3516226499999995 -0.6292029388000000 17.5615549800000004
 13.3520081800000003  7.3913636430000000 17.9653213899999997
  4.1081986370000001  7.5611264470000004 14.5148765399999995
  8.0369107480000004  1.3462072549999999 18.4173265000000015
  6.8453457630000001  3.8019189400000002 17.0423141399999984
  4.7812122170000002 11.3631530400000003 18.2255936900000002
  2.6056992170000002  5.8369339370000004 13.8312293600000000
  2.5604401929999998 11.4952349199999997 11.6629319200000001
  5.1253448349999999 11.1811092199999997 11.1886314500000008
 11.2539316100000004  2.9423910709999999 12.2011619400000004
  0.0377709381400000  2.3751074110000001 17.0609437600000007
  6.1042337499999997  9.3486198270000003  5.2063519180000002
 14.8612570700000006 14.1064760800000002  9.5359458900000007
  5.1908435380000002  0.7088010586000000  9.5235024290000005
  5.4796392789999997  9.0177147899999994 13.4055788699999994
 11.9706552800000008 12.5763172799999996  6.0936531880000002
  7.3965879990000003 11.6577717900000000  9.2935539610000006
  3.9394544429999998 10.2845540799999995 12.7898289999999992
  0.6124309677000001  4.9176631430000004 13.2925871400000002
  1.0201652189999999 13.0602745900000006 13.4428659499999998
  9.9975665009999997 12.4553370700000006 10.0910387600000000
  6.2461459550000002 13.0306855000000006  8.4431220210000006
  3.1967784570000002 14.7694328400000003  9.8377985369999994
  5.6662982580000003  6.3426081910000001 14.7641640299999999
 12.9085454700000000  1.6099043010000000 11.6110436200000002
  5.6878168970000003 11.8095905999999999  0.4501787522000000
  1.6076284770000000  9.3958146189999994  1.6238191860000000
  3.0073160180000000  3.4741646460000002  2.0788623579999999
  3.4964586070000001 11.2691680699999992  2.0885591340000000
  5.0079726129999997  0.1672529345000000  2.1645457110000001
 11.6603834600000003 13.0926059899999991  2.1895704509999998
 10.0419163200000003  3.1275557420000002  1.8687625870000000
 13.4269884400000006  1.0680813110000000  1.8140442930000000
 10.5733495099999999 14.9420438000000004  1.7059442050000000
  1.4801724820000000  0.8291056006999999  1.6495195549999999
 13.7454937200000007 11.3074358900000007  2.0525894400000002
  5.6680604089999997  5.7210181000000002  1.5910979679999999
  0.1693986620000000  6.8113766140000003  2.3879933819999999
  6.8274027960000003 14.2063124799999994  2.4617726860000002
  8.8057526589999995 13.2106285200000002  1.5609794319999999
  5.4122268589999996  2.4764123620000000  1.9502950210000001
  0.0531348996300000  2.8981993070000001  3.3288463970000000
 14.0001513600000003 13.5415202699999995  1.4367779610000000
 11.2894483999999995  9.3494244420000001  3.4501520580000000
  4.5542838899999998 13.9400959499999999  0.9731232343000000
  8.5767053390000001  6.0131096629999998  1.4228181250000000
  7.9469483519999997  9.9271224329999992  1.3254862759999999
  2.2366121259999998 12.5862766799999992  2.5736956289999999
  3.3337451040000001  8.6844326370000005  1.3174449810000000
  7.4841114810000002  1.3297652400000000  9.7284731499999992
  5.0050545639999999  0.5592176398000001 15.5073419300000008
  4.2438181100000003  5.9824463559999996 11.2485759699999992
  0.4178740291000000  1.4002090780000001 17.0951162699999983
 14.0553556299999993 10.8794380000000004 16.1106352100000016
  7.1934689699999996  5.4692043320000003 11.4966655899999992
 11.2810015799999999  9.9887587100000008 16.0017923199999998
 13.3035805000000007  8.0639576070000007 15.3563285500000006
 10.7769161199999992  4.7390539250000003  9.0754342220000002
  7.9788060639999996  6.4066733339999997 16.2658055700000013
  6.2029521580000004 13.9810965800000009 11.7399456499999992
  9.1857533619999998  7.1649304200000001 11.0097194900000002
  0.2527829909000000 10.3652993099999993 11.7473339499999998
  1.6876577450000001  4.1534652599999999 16.1327461700000008
  0.3853986337000000  2.1901735040000001 10.8657806000000008
  2.5577416920000000  3.8927607860000002 10.4837673500000008
  1.3897221490000000  9.3242400159999992 16.7417176000000012
 11.8283553900000005  7.3279658620000001 10.7997773800000001
  0.5892931166000001 14.7705158999999995  9.7340754050000005
 12.2904392399999995 14.8225669700000005  9.6120312590000001
 14.3738230100000006  7.7959440359999999  9.3505290300000006
 10.0239131100000005  0.1879264346000000 17.0648132299999986
  9.0301574460000005  8.8471874019999994 17.6469634299999996
  9.3128939230000007 14.3415238600000006  9.6894556850000004
 12.6555388200000003  0.3023786481000000 17.2398041100000015
 15.0278425500000008 12.1229127400000003  9.7273899030000006
 12.0276132800000006 12.5277770499999992 17.0476542199999983
  4.5178383359999996 11.7233046000000005 10.5309162300000008
  4.8784243900000002  1.6585448229999999  9.7813152920000004
 12.7416280799999999  9.7758937629999991 10.8346116699999993
 10.4843527499999993  1.8954747279999999  9.3715452510000006
 10.3394625500000004 11.5629197900000005 10.5636991400000007
  8.4716761700000003  3.3035342310000000 10.7508845300000004
  9.4075096610000006  3.9661895500000002 16.5021745200000005
  7.2844120649999997 11.3987145000000005 10.2997621499999994
  6.3413982549999997  8.5034063839999998 11.3622112600000005
  1.5038135749999999  7.9040463709999997 12.0875184600000001
  2.6079025329999999 10.6051621600000008  8.9566675050000004
 13.2859568699999997  3.5641573270000002  9.3238014640000006
  0.3179632520000000  5.6781931500000002 10.4554661699999993
 12.9488245899999992 12.3104851600000007 11.5149561800000004
  3.7567717630000002 14.5824180900000009 10.7029080800000003
 13.8960126400000004 14.8979487299999995 12.0071283199999996
 13.1211398700000004  2.2657654520000001 12.3849017200000002
  3.1507775649999998  1.7742002830000001 11.8955382000000007
  7.8592328260000004  7.1529470159999997 13.5435842999999991
  1.0897508690000000  6.7823788939999998 14.9408055199999996
  9.3119583400000003  8.6497995920000008 15.2015316600000006
  7.1331886139999998  4.1672821869999996 14.4098906299999996
  3.0661577310000001 10.4390612300000001 13.3459927300000007
  6.8448722080000000 13.8827333900000003 14.5776080700000001
  7.8453802059999997  1.6326464770000000 15.7914962699999997
  6.2647521060000004  8.7752340560000004 16.9169878199999992
  8.3488899439999997 11.3161494999999999 14.8928637399999992
 10.0359385400000001 13.4085161900000003 15.0123415999999992
 10.1379495100000003  5.7355745349999996 14.5562201400000006
  1.6289379129999999  2.0380224189999998 14.3862610600000007
 11.2204362700000004  0.9847647933000000 14.2052065499999998
  3.7958311540000000  8.0699095649999997 15.3719248099999994
 12.7300943800000006 13.2892858199999999 14.2953087500000002
  0.8131817629000000  9.2661395760000005 14.3230775799999996
 12.4233545099999994  3.4777638170000000 14.8516311299999995
  2.3413493619999999 14.5448913799999993 15.9879814400000004
 13.2699735499999996 10.4197678000000007 13.6544303300000003
 13.9653423100000005  7.8525097140000000 12.6765922199999999
  2.5820640749999999  4.8691946640000001 13.4268976400000000
  0.0089172802650000  4.0933868240000004 13.5695342500000002
 14.7744273800000006 13.5976181199999999 16.6250927399999995
  1.5213123200000001 14.8704715000000007 12.5500744599999994
 11.1170446700000003 14.0764772399999991 12.2048497000000005
  8.4356957809999997 10.0290499200000003 12.3971756000000006
 13.9447271700000002  5.4290068749999998 16.1712286200000008
  4.3305631699999996  3.1858535660000000 14.8463447500000001
  6.0458359000000002  9.2152066490000006 14.2656319699999994
  8.7182956730000001 12.9915312699999994 12.4237944999999996
 10.0731628099999995  7.8260442870000002  8.1525845439999998
  4.9073807760000001  3.6813456050000002 12.0873282000000000
  1.5464039380000001 11.9786063899999995 15.0851499300000000
  9.0515402480000002  0.9217479027000000 12.2324990699999994
  0.0365768697200000 12.8119090000000000 13.2338637800000001
  6.2017415119999999 11.7162185700000006 12.8791705299999997
 10.4644835799999996  3.3520655700000002 12.7646091500000001
  1.9959197490000000 12.3061193000000006 11.2656847800000008
 10.9303217600000000  8.1098751369999995 13.1145535100000004
  6.2646378110000001  1.6723982170000000 12.6437898000000004
  4.3086992659999996 12.4781408500000008 15.6722125400000003
  3.7333392900000000 13.2851942699999999 13.3123008699999996
 10.7330188599999996 11.1903346300000006 13.4178690399999994
 12.5850198800000008  5.4295468700000002 13.1978953800000003
  6.1263497869999997  4.0023253280000004  9.4868186629999993
  2.3611022620000002 12.0759487500000002 17.6830567700000003
 14.0443150499999998  0.6627215710000000 14.6743272800000000
  9.3849538520000007  0.9503752018000000  5.7470253690000002
 12.5979344300000005 10.3837356199999995  5.5393978969999997
  2.9607077319999999  2.4380613289999999  5.8288394669999999
  6.6001429869999999  7.7221343310000004  6.9186871830000003
  5.7702117230000001  8.3737675189999994  2.3107452959999999
 14.3170849600000007  3.5097064339999999  6.1572139870000004
  3.5384687210000001  6.3977951570000000  6.0933601319999999
 14.0417882899999995 13.9607968600000003  2.3283482260000001
  4.1622173599999996 14.7629341699999994  6.5886857049999996
 11.6913189600000003  7.5412983240000004  5.2755325620000004
  1.2093547440000001  9.6870227809999996  2.5035169420000001
  5.4193067470000003  9.8208256469999995  5.8258341199999997
  9.0742957919999991 13.0988389999999999  2.5392671020000002
 12.7034649000000002  0.9850995256000000  2.5496279240000002
  6.2892819969999998  4.9110346590000002  6.7819461099999998
  6.5231732810000000 13.2326694699999994  2.5542810120000001
  1.5786111660000000 14.7470545899999994  6.5722771050000004
  4.0684023390000004 11.8868220400000002  2.5636233700000002
 11.0296506900000004  6.8167983799999998 16.9167157400000008
 14.3771995599999993  8.3417982869999996  6.5217790759999996
 10.1117123200000005  5.6223822940000003  6.4643367659999997
  2.9146641099999999 12.1296873299999994  5.5758972719999997
  5.4968087250000002 12.2933362299999995  4.9380849470000001
 14.1131917100000006  0.4783620600000000  5.5490796890000000
  0.1102230606000000  1.9032562600000000  3.5443714380000002
  6.9646046280000000  6.3689105430000001  3.6094549610000000
  7.0144860350000000 10.7425408400000002  3.7056961639999999
 13.8508492800000003  8.6197339349999993  3.7210815149999998
  2.9697692130000002  0.6319036119000000  3.8630876740000000
  9.3924712560000003  6.2251140969999996  3.8849559939999998
  3.6390571270000001  9.6782362259999992  3.8873947979999999
 11.2570354399999992 14.4155109100000001  4.1272063670000003
  1.5247347229999999  7.6186421720000004  4.3637651479999997
  9.9334714210000001  3.3396142260000001  4.3899116280000001
  4.7990277629999998  4.4577978619999996  4.5992276600000004
  6.1547647330000004  0.3257064118000000  4.6402264210000004
  1.8111621069999999  4.8690648630000002  4.6483556540000004
 14.3905626200000007  6.0477932159999996  4.8627404030000001
  0.8877056506000000 10.1453642700000000  4.8798710950000004
  7.3266022819999996  2.6001764020000002  4.8898052400000003
  8.4491205069999999 12.9803304599999993  4.9373536780000000
 12.0989826499999999  4.7824883549999999  4.6930857540000002
 14.9050706999999996 12.7077923899999998  5.1314629050000002
 12.1789711300000008  2.0416070510000002  4.7465718350000001
  8.5706809560000004  8.6688527450000006  5.3704483300000003
  2.5688250180000001 13.3674820400000005  8.5072151349999992
  7.6433039740000002  3.8963026200000002  2.7258921279999999
  7.3632054069999997 11.7945641400000003  7.3910383949999998
  7.4864603299999999 14.7996172799999997  7.1504601279999997
 14.2369624500000000 13.7285316900000005  7.5813855109999997
 11.3404962200000003  3.1189648459999999  6.9524611869999999
  3.8658741470000000  3.9305408329999998  7.7966661000000004
  5.3141473420000001  2.3946347090000000  2.9711985630000002
  4.7475202290000000 12.0286898699999991  7.6095066109999996
  7.8082002959999999  8.8458126380000000  9.2705320990000004
  8.1681360870000006  5.7981929090000000  8.7463737750000004
 14.3547707700000000  1.3787116200000000  7.9845653499999996
 12.3612035099999993 11.9873695500000004  8.5878865550000008
  8.7102099709999994  1.0091763659999999  3.0241992910000000
  0.9159954867000000  3.6932277910000000  8.2937103130000001
 12.1556939100000001  9.1790800790000002  8.2476971290000005
 13.9153314399999992 11.3621262900000009  3.0671046610000001
  3.8799597430000001  6.8677519220000001  3.1937186440000001
  1.4999299500000001 12.6162413699999991  3.2521075009999998
  6.1190775989999997 13.8512301400000002  9.1104862160000000
  2.4676914220000001  1.5012171729999999  8.7556066559999994
  2.7178398220000002  6.0124176800000004  8.8063136770000003
  5.2105949610000000  9.4627934479999993  8.5588719040000001
 12.6958210800000000  6.1540003040000002  7.3409440940000001
  5.3779982080000002  6.7650634470000002  9.0174120109999993
  9.8502881109999993 13.3187654200000001  7.3168343670000002
  8.6805372950000006  3.3016918739999999  7.5012911620000002
  2.4905013440000001  3.1051916589999999  2.8672747090000001
 11.6287817699999998  0.3127941909000000  7.2185935949999998
  2.0822556159999999  8.5769230449999991  7.4253237470000002
  0.6115604922000000  5.9662987349999996  7.1639227879999998
 14.6646695499999993 10.7337152600000003  7.3567771909999999
 10.2220023399999995 10.4888202600000007  6.7905919389999996
  5.8348841589999996  2.0956882580000000  7.1571373730000003
 13.5267675300000008 12.5462041400000004 16.0817210099999990
  4.1023969830000002  8.5687729689999994  2.6206708519999999
 12.9120819900000008  6.8015591129999997 16.6542056000000009
  5.2361640060000001 12.7452214500000007  1.5532056980000000
 10.4993126799999992  8.5140309869999999 16.6325941999999998
 12.3172704000000000 14.3214780000000008  2.7184813380000001
 11.2657561200000007  1.3692538869999999 16.8244296200000001
 12.9007117400000002  9.7830459990000005 15.2799937999999997
 14.7951706200000004 12.8282710200000007  3.3686133310000002
  0.6792956459000000 10.5255878299999992 15.6232490199999994
  3.8376306009999999 11.3844809399999995 17.0409008399999991
  5.5493307039999999  6.6142272809999998  2.7435608960000000
  1.4761871449999999 13.0870158500000002 16.5361512099999999
  2.0483995620000002  8.2349779269999992 15.4267452200000008
  4.6694029910000001  2.1828197480000000 16.4398993599999983
  4.0951843280000002 14.2266898099999999 16.1507803900000013
  8.2070138579999998  5.5010683320000000  2.7727083380000002
  1.7421953070000000  1.5327912690000001  2.9246681849999998
  9.0786458270000008  2.7872764110000001  2.9612751359999998
  9.6587450429999997  5.7157737690000001 16.2011071700000002
 11.2156145200000008  4.4815395530000002 13.8843193700000000
  7.1174801409999997  5.9619809730000002 14.6848295800000006
  7.8716354620000004  8.1941393869999999 16.4434812400000006
 14.2170424299999993  0.2531702227000000 16.4485320299999991
 14.7465441599999991  7.7648928130000003 14.3158171900000006
  1.7798166600000001  1.2243870960000001 15.9818355299999997
  9.8068595920000003 14.6075837100000001  2.9792326949999999
  7.1779805459999997  9.4382321000000005  2.5433387079999998
  2.5463212860000000  3.6074050889999998 14.6686693199999993
  8.2355504300000000  0.4363448208000000 17.2211687900000001
  0.7993427615000001  5.7729601380000002 16.5672181400000014
  9.9565246139999992 10.4301531599999997 14.8273405199999999
  4.8137745269999996  0.7946016335000000  3.4841345669999999
  6.7170625440000000  0.3739124373000000 15.4383989899999996
  5.8702023299999997  0.3360563598000000  6.4976812710000003
  0.0670339730100000  1.8822452860000001  6.3417678019999997
  7.0565917870000003  3.2087774620000000  6.5394297249999997
  0.6932934476000000  9.4773180109999995  6.7027587200000003
  3.5483705780000001 13.0771577600000004  7.0154831279999996
  6.1085411010000001  8.3169660870000008  9.4731905429999994
  9.4930126619999999 10.1491728099999996  5.2015612500000001
 11.0949790099999994  7.0924644429999999  6.9426830490000002
 13.2539421399999995  9.7019696159999995  7.0143204010000000
  7.4213974230000002  6.4205245910000004  6.2088498679999997
  2.1967773720000001  6.7623575420000002  7.2922545769999996
  4.8750243940000004  8.5723215790000005  6.9951980300000001
  9.4570549840000009  4.9528320859999999  7.9397426769999999
 14.2916970400000007  6.9669499380000000  7.7044564350000000
 13.2116588200000002  0.0454494044300000  8.0659069359999993
  6.4389153730000004  5.4382028299999998  8.5648031319999998
 14.0953026500000007 12.1335492100000000  8.2334595369999999
  1.7113799040000000 -0.0822992895800000  8.4013136910000004
  5.1143124039999996  2.8517107240000001  8.5866948860000001
 10.3500811699999993  9.6321610650000000  8.4112278519999997
  2.3781130940000001  2.8766117510000000  7.5441472070000000
  4.5203168360000001  4.9248859200000004  6.3900134939999997
  8.1516088710000005 13.1161807100000001  6.7116347779999996
 11.0850211499999993 12.0002303599999998  7.1920993900000001
  7.7368426589999997 12.3914610199999995  3.4852591460000002
 14.9607868400000008  7.2179536840000003  3.7899003360000001
  6.2520820570000000  3.5055787160000000  3.8388622410000002
  8.1068671630000004  7.7216979539999997  3.8770118189999998
  2.0114716320000001  9.1942008009999991  3.9727676970000001
 13.6277203900000004  1.2017027780000000  4.0585022589999999
  4.0552074979999997 11.4745965699999992  4.2880734499999997
  3.1065222870000002  3.6799954630000000  4.4066737509999996
  2.7140764160000002  6.3877335909999999  4.4323522930000001
 12.3086027500000004  9.0205159399999992  4.4913778249999998
  7.8334949360000001  0.9575525230000000  4.5408237070000004
 10.3212264499999993  5.0056913840000004  4.7968536229999996
  1.3859901489999999 11.9158937700000003  4.8015784699999999
  5.9573099799999998 11.3814070199999993  6.4494522449999998
  2.8595386480000000  0.6057875847000000  5.6724641130000002
 11.2402705399999991  0.6339487554000000  5.4528644269999997
  0.3160285156000000  4.8831307199999996  5.7521698949999998
 12.7791095099999996  6.1502053849999996  5.5077866670000004
 12.5982821200000004  3.4314067950000000  5.7276972080000004
  9.8300590650000004  2.6236875870000000  6.1214502460000002
 -0.0185268061300000 14.1446981399999991  6.0723520349999998
 10.7098117899999998  0.2047798874000000  8.8715924529999999
 14.7548768599999995  2.6612694000000001  9.0601586340000004
 12.0695634500000004 11.3312258900000007 10.2212351199999993
  1.5408728979999999  4.8806471960000000  9.4437326109999997
 14.4966878799999996  3.3173986210000002 12.0795254900000000
  7.5455234950000003  7.1982469599999996 11.7837666500000005
  2.7789585730000002 13.8039082900000007 11.8907025300000004
  7.2203706480000003 10.5001548299999996 13.7455125700000007
  3.3230810669999999  4.6093883419999999 11.8953128800000005
  5.5594606329999996 13.3543465200000000 13.3344789400000003
 12.3485174700000009  7.0978421850000002 12.6485421599999999
  2.8072116000000000  0.8992833716999999 13.4470255699999992
 13.8036201999999992  9.5636489220000005 12.2152100400000005
 14.1129735499999995 14.2987027300000005 13.6593494300000007
  1.5861035999999999  9.5782542040000003 12.6492234099999994
 12.3491344299999994 11.8739174100000007 13.2083738400000001
  7.7917477489999998  3.3990783310000001 15.9580710499999991
 11.1553502499999997 14.3129354600000003 14.0465109500000001
  9.6595177700000008  1.9208114830000000 13.6823092099999997
  5.6773896109999997  3.2452213840000002 13.6906514000000001
 12.7532714600000006  1.8490959929999999 14.0750016599999999
  4.9827196330000003  9.4123013160000006 15.7580404000000005
  8.4906109369999996 13.0808646300000007 14.4258321699999996
 13.6722509300000006  4.7315803960000000 14.5025068499999996
  9.5947643599999992  7.3463147439999998 13.9689256000000004
  9.5823293839999995 11.3860838100000006 12.1438284200000002
  3.1031976790000000 11.9482797000000005 14.3593084599999994
  7.6828118119999997  1.7963603269999999 11.4888752299999997
 10.3625144599999999  8.5384240330000001 11.3195904299999999
  7.6229220780000002 14.7915912299999999  8.9787762630000003
  8.8231471950000007  7.3792555059999998  9.2488931700000006
  1.7590616059999999 12.0770825100000003  9.4398670730000003
  3.7690979709999999  7.0152232459999997  9.8112769950000001
  7.6066296329999998  9.7331575099999998 10.8231022400000008
 12.8018920600000001  8.4731902120000004  9.6825704019999996
  5.0962709320000004 13.4526487100000001 10.4466650199999993
  2.2280754290000000  2.2096484329999999 10.4777500400000001
 14.8324786100000008  9.9860966789999992  3.3773280840000002
  4.3801374089999996 10.9330242000000002  8.8947072699999996
  2.1207397040000000  8.9012307830000008  9.2331542580000008
  5.6388087870000003  4.8699706569999996 10.9814312800000007
 11.6246186199999997  3.2057889340000001  8.6980392769999995
  0.6254262014000000  7.4916694880000003 10.6207420900000002
  7.2029201409999999 12.5250193799999998 11.6231396900000004
 13.6481197600000002  4.8686156350000003 10.5697744700000005
 11.3765531899999992  5.5945474140000000 10.4843000400000008
  8.7905246469999998  2.4684670199999998  9.2250422749999998
  0.3792350142000000  0.4178585054000000 11.3145871899999992
 12.5892021599999993 14.1254158299999997 11.1935717399999994
  9.5298869059999998 14.4669564499999996 11.5287721699999999
  4.8624440020000002  1.8891944329999999 11.5046247600000004
 15.0386439200000002 12.1131453300000000 11.5589882199999998
