Beta-Si3N4                              
   1.00000000000000     
     7.6664503359999996    0.0000000000000000    0.0000000000000000
    -3.8332250580000000    6.6393405579999998    0.0000000000000000
     0.0000000000000000    0.0000000000000000   29.6050000000000004
   Si   N    H 
    24    31    15
Selective dynamics
Direct
  0.1739744554302192  0.7732865869960079  0.0589568991724363   F   F   F
  0.5960002906953932  0.8296819468557857  0.0589568991724363   F   F   F
  0.2303296918685191  0.4076004200054442  0.0589569329505153   F   F   F
  0.7733050612139644  0.5964528536898984  0.1071762882877239   T   T   T
  0.4074360318308358  0.1800614543539765  0.1068979491488670   T   T   T
  0.8246567091476096  0.2305687954059621  0.1071088277013892   T   T   T
  0.1804545948476159  0.7751128861991130  0.1569324636193596   T   T   T
  0.2299371552593619  0.4086767573479526  0.1568350267070562   T   T   T
  0.5960918496773949  0.8241172017338542  0.1569520839349133   T   T   T
  0.7728591927297054  0.5968309684748908  0.2063605590565262   T   T   T
  0.4082609267796586  0.1793901379065897  0.2061819717754305   T   T   T
  0.8256797336711128  0.2322157199963526  0.2062536616225817   T   T   T
  0.1796538619109444  0.7738442074904676  0.2544287308029321   T   T   T
  0.2315220272434715  0.4092900228788381  0.2543601680491238   T   T   T
  0.5960448470376040  0.8257801831700191  0.2544435285237816   T   T   T
  0.7736813592536217  0.5980061623849608  0.3056895410968617   T   T   T
  0.4077718064352822  0.1793786243502023  0.3055292808474573   T   T   T
  0.8262180760385265  0.2321681809760984  0.3055615400350488   T   T   T
  0.1752631193709793  0.7659286938452673  0.3514983686232377   T   T   T
  0.2396985551447500  0.4127436884417757  0.3514520957987363   T   T   T
  0.5929787818962124  0.8308962527766640  0.3515116930429423   T   T   T
  0.8053179393629555  0.6773026559186919  0.4071447224234870   T   T   T
  0.3342120413818807  0.1343542117649829  0.4069207133855532   T   T   T
  0.8720857002387856  0.2037917577680736  0.4069951805895142   T   T   T
  0.3301448750201388  0.0297043054618342  0.0589568653943573   F   F   F
  0.7038897061160228  0.6736534993088696  0.0589568653943573   F   F   F
  0.3334849035786078  0.6702010479999245  0.0589568991724363   F   F   F
  0.9739240296780594  0.2999508735246863  0.0589568991724363   F   F   F
  0.6686458436148142  0.3354680026028763  0.1034526669337622   T   T   T
  0.0340533034458980  0.7079241842517175  0.1085208593095516   T   T   T
  0.6748036827596581  0.9699741601025660  0.1084159684259249   T   T   T
  0.2966863745803340  0.3302324822451747  0.1081803954326130   T   T   T
  0.3368563016278597  0.0367858453651504  0.1566374933702289   T   T   T
  0.7009325110653076  0.6675011806737329  0.1568735720267699   T   T   T
  0.3354240126044328  0.6693696065426238  0.1568393822485110   T   T   T
  0.9682573816838010  0.3035375488014708  0.1567228155588206   T   T   T
  0.6689411499747496  0.3361276793116434  0.2066517391273733   T   T   T
  0.0346270574550045  0.7066137879074887  0.2056868954352921   T   T   T
  0.6736784200797030  0.9704653790444215  0.2056341263856410   T   T   T
  0.2985254651410281  0.3313898533688638  0.2055790597529515   T   T   T
  0.3342145507486433  0.0359689293892883  0.2556477032367291   T   T   T
  0.7036665623644729  0.6712613207463261  0.2557926218639840   T   T   T
  0.3357535188468198  0.6696198088135527  0.2546358579174120   T   T   T
  0.9693893139586487  0.3017731146845234  0.2556581696583485   T   T   T
  0.6691731934689741  0.3365394460490290  0.3098537404126845   T   T   T
  0.0328463540100547  0.6956783348113701  0.3026002607896660   T   T   T
  0.6646850900179827  0.9729893334281335  0.3025584153802915   T   T   T
  0.3097836676592824  0.3406150330405866  0.3025045789100488   T   T   T
  0.3360944009772866  0.6698171007910356  0.3544345921586928   T   T   T
  0.3089022073219682  0.0273643197422086  0.3533691694386473   T   T   T
  0.7213177160264524  0.6978062516796104  0.3534778783675802   T   T   T
  0.9782699887989520  0.2849172315201280  0.3533627593316012   T   T   T
  0.0220717605230401  0.6706319196498650  0.3973391100978739   T   T   T
  0.6513446296140147  0.9834248806520559  0.3974991118126516   T   T   T
  0.3343373460804318  0.3546213900166499  0.3973305919946230   T   T   T
  0.0398680248640577  0.7022045311559076  0.0187610963887464   T   T   T
  0.6604142017612026  0.9637068261951738  0.0187473009348025   T   T   T
  0.3029691020990974  0.3454860318434225  0.0187513094170459   T   T   T
  0.4088664221506576  0.0974442111623038  0.0304338283558621   T   T   T
  0.6756061739336578  0.5825995252863141  0.0316795621160816   T   T   T
  0.9070836859263697  0.3184103454324982  0.0310971561292359   T   T   T
  0.8431456016815732  0.8493336741520282  0.4362515687683388   T   T   T
  0.1673579206472849  0.9971958486409664  0.4369607365204399   T   T   T
  0.0092125109047429  0.1735670671027994  0.4369361694173110   T   T   T
  0.0716953803131150  0.6174436605712527  0.4226802143442611   T   T   T
  0.5466798814235236  0.9357621176893861  0.4224319933259152   T   T   T
  0.3937346517546622  0.4603083768896152  0.4220112515216552   T   T   T
  0.6704566535019942  0.4973883909334667  0.4344327258121363   T   T   T
  0.5186423536570305  0.1868889263303087  0.4330420247241454   T   T   T
  0.8207794560954924  0.3366275206172574  0.4331312759966141   T   T   T
 
  0.00000000E+00  0.00000000E+00  0.00000000E+00
  0.00000000E+00  0.00000000E+00  0.00000000E+00
  0.00000000E+00  0.00000000E+00  0.00000000E+00
  0.00000000E+00  0.00000000E+00  0.00000000E+00
  0.00000000E+00  0.00000000E+00  0.00000000E+00
  0.00000000E+00  0.00000000E+00  0.00000000E+00
  0.00000000E+00  0.00000000E+00  0.00000000E+00
  0.00000000E+00  0.00000000E+00  0.00000000E+00
  0.00000000E+00  0.00000000E+00  0.00000000E+00
  0.00000000E+00  0.00000000E+00  0.00000000E+00
  0.00000000E+00  0.00000000E+00  0.00000000E+00
  0.00000000E+00  0.00000000E+00  0.00000000E+00
  0.00000000E+00  0.00000000E+00  0.00000000E+00
  0.00000000E+00  0.00000000E+00  0.00000000E+00
  0.00000000E+00  0.00000000E+00  0.00000000E+00
  0.00000000E+00  0.00000000E+00  0.00000000E+00
  0.00000000E+00  0.00000000E+00  0.00000000E+00
  0.00000000E+00  0.00000000E+00  0.00000000E+00
  0.00000000E+00  0.00000000E+00  0.00000000E+00
  0.00000000E+00  0.00000000E+00  0.00000000E+00
  0.00000000E+00  0.00000000E+00  0.00000000E+00
  0.00000000E+00  0.00000000E+00  0.00000000E+00
  0.00000000E+00  0.00000000E+00  0.00000000E+00
  0.00000000E+00  0.00000000E+00  0.00000000E+00
  0.00000000E+00  0.00000000E+00  0.00000000E+00
  0.00000000E+00  0.00000000E+00  0.00000000E+00
  0.00000000E+00  0.00000000E+00  0.00000000E+00
  0.00000000E+00  0.00000000E+00  0.00000000E+00
  0.00000000E+00  0.00000000E+00  0.00000000E+00
  0.00000000E+00  0.00000000E+00  0.00000000E+00
  0.00000000E+00  0.00000000E+00  0.00000000E+00
  0.00000000E+00  0.00000000E+00  0.00000000E+00
  0.00000000E+00  0.00000000E+00  0.00000000E+00
  0.00000000E+00  0.00000000E+00  0.00000000E+00
  0.00000000E+00  0.00000000E+00  0.00000000E+00
  0.00000000E+00  0.00000000E+00  0.00000000E+00
  0.00000000E+00  0.00000000E+00  0.00000000E+00
  0.00000000E+00  0.00000000E+00  0.00000000E+00
  0.00000000E+00  0.00000000E+00  0.00000000E+00
  0.00000000E+00  0.00000000E+00  0.00000000E+00
  0.00000000E+00  0.00000000E+00  0.00000000E+00
  0.00000000E+00  0.00000000E+00  0.00000000E+00
  0.00000000E+00  0.00000000E+00  0.00000000E+00
  0.00000000E+00  0.00000000E+00  0.00000000E+00
  0.00000000E+00  0.00000000E+00  0.00000000E+00
  0.00000000E+00  0.00000000E+00  0.00000000E+00
  0.00000000E+00  0.00000000E+00  0.00000000E+00
  0.00000000E+00  0.00000000E+00  0.00000000E+00
  0.00000000E+00  0.00000000E+00  0.00000000E+00
  0.00000000E+00  0.00000000E+00  0.00000000E+00
  0.00000000E+00  0.00000000E+00  0.00000000E+00
  0.00000000E+00  0.00000000E+00  0.00000000E+00
  0.00000000E+00  0.00000000E+00  0.00000000E+00
  0.00000000E+00  0.00000000E+00  0.00000000E+00
  0.00000000E+00  0.00000000E+00  0.00000000E+00
  0.00000000E+00  0.00000000E+00  0.00000000E+00
  0.00000000E+00  0.00000000E+00  0.00000000E+00
  0.00000000E+00  0.00000000E+00  0.00000000E+00
  0.00000000E+00  0.00000000E+00  0.00000000E+00
  0.00000000E+00  0.00000000E+00  0.00000000E+00
  0.00000000E+00  0.00000000E+00  0.00000000E+00
  0.00000000E+00  0.00000000E+00  0.00000000E+00
  0.00000000E+00  0.00000000E+00  0.00000000E+00
  0.00000000E+00  0.00000000E+00  0.00000000E+00
  0.00000000E+00  0.00000000E+00  0.00000000E+00
  0.00000000E+00  0.00000000E+00  0.00000000E+00
  0.00000000E+00  0.00000000E+00  0.00000000E+00
  0.00000000E+00  0.00000000E+00  0.00000000E+00
  0.00000000E+00  0.00000000E+00  0.00000000E+00
  0.00000000E+00  0.00000000E+00  0.00000000E+00
