 H  C  H  O  H  C  H  C  H  C  H  C  O  H  C  H  C  H  C  H  O  C  H  O  C  H  C  H  C  H  C  H  C  H  C  H  C  H  C  H  C  H  O  H  C  H  C  H  C  H  C  H  O  H  C  H  C  H  C  H  C  O  H  C  H  C  H  C  H  O  C  H  O  C  H  C  H  C  H  C  H  C  H  C  H  C  H  C  H  C  H  O  H  C  H  C  H  C  H  C  H  O  H  C  H  C  H  C  H  C  O  H  C  H  C  H  C  H  O  C  H  O  C  H  C  H  C  H  C  H  C  H  C  H  C  H  C  H  C  H  O  H  C  H  C  H  C  H  C  H  O  H  C  H  C  H  C  H  C  O  H  C  H  C  H  C  H  O  C  H  O  C  H  C  H  C  H  C  H  C  H  C  H  C  H  C  H  C  H  O  H  C  H  C  H  C  H 
 1.0000000000000000
    10.0000000000000000    0.0000000000000000    0.0000000000000000
     0.0000000000000000   40.0000000000000000    0.0000000000000000
     0.0000000000000000    0.0000000000000000   20.0000000000000000
   H   C   H   O   H   C   H   C   H   C   H   C   O   H   C   H   C   H   C   H   O   C   H   O   C   H   C   H   C   H   C   H   C   H   C   H   C   H   C   H   C   H   O   H   C   H   C   H   C   H   C   H   O   H   C   H   C   H   C   H   C   O   H   C   H   C   H   C   H   O   C   H   O   C   H   C   H   C   H   C   H   C   H   C   H   C   H   C   H   C   H   O   H   C   H   C   H   C   H   C   H   O   H   C   H   C   H   C   H   C   O   H   C   H   C   H   C   H   O   C   H   O   C   H   C   H   C   H   C   H   C   H   C   H   C   H   C   H   C   H   O   H   C   H   C   H   C   H   C   H   O   H   C   H   C   H   C   H   C   O   H   C   H   C   H   C   H   O   C   H   O   C   H   C   H   C   H   C   H   C   H   C   H   C   H   C   H   C   H   O   H   C   H   C   H   C   H
   2   1   3   1   1   1   1   1   1   1   1   3   1   4   2   1   1   1   1   1   1   6   1   1   3   1   1   1   4   2   3   2   1   3   2   3   1   1   1   1   2   1   1   1   2   3   1   3   1   9   1   3   1   1   1   1   1   1   1   1   3   1   4   2   1   1   1   1   1   1   6   1   1   3   1   1   1   4   2   3   2   1   3   2   3   1   1   1   1   2   1   1   1   2   3   1   3   1   9   1   3   1   1   1   1   1   1   1   1   3   1   4   2   1   1   1   1   1   1   6   1   1   3   1   1   1   4   2   3   2   1   3   2   3   1   1   1   1   2   1   1   1   2   3   1   3   1   9   1   3   1   1   1   1   1   1   1   1   3   1   4   2   1   1   1   1   1   1   6   1   1   3   1   1   1   4   2   3   2   1   3   2   3   1   1   1   1   2   1   1   1   2   3   1   3   1   7
Cartesian
  1.0702100000000001  6.1162299999999998  6.2083399999999997
 -0.2784400000000000  5.3930999999999996  5.3576699999999997
  0.5321500000000000  5.1741599999999996  6.0624599999999997
  8.3066899999999997  0.9335500000000000 11.0104199999999999
  1.6149800000000001  4.8287699999999996  3.4899499999999999
  2.8799800000000002  5.4096599999999997  4.5830099999999998
  3.0927199999999999  5.5335099999999997  7.2441199999999997
  5.8615100000000000  0.7274800000000000 10.7799399999999999
  2.2627500000000000  4.5421800000000001  4.3256899999999998
  0.0937300000000000  4.8994400000000002  7.0272600000000001
  7.6824700000000004  1.8206000000000000 11.0725099999999994
  6.1629199999999997 -0.9037200000000000 14.1595200000000006
  6.2941500000000001  1.7118300000000000 10.9404100000000000
  8.1123700000000003 -0.2970200000000000 15.1396999999999995
  1.4452400000000001  4.0583299999999998  5.5294999999999996
  5.8963900000000002  0.1401900000000000 14.2849500000000003
  3.1450900000000002  4.3118100000000004  7.2541599999999997
  7.9720500000000003  0.6270300000000000 15.3991299999999995
  7.6211099999999998  3.3553700000000002  3.2101999999999999
  2.9504100000000002  3.7614700000000001  3.9817399999999998
  4.0265199999999997 -0.1029400000000000 13.2635100000000001
 -0.1381100000000000  3.1691900000000000  4.3015900000000000
  4.6718900000000003  0.5985900000000000 13.7831200000000003
  8.2701399999999996  3.0690000000000000 11.2622199999999992
  5.4204699999999999  5.0026999999999999  7.1610100000000001
  6.7583900000000003  1.0270500000000000 14.9229900000000004
  9.3503200000000000  3.1585700000000001 11.3374100000000002
  0.5577400000000000  2.8834599999999999  5.0975099999999998
  7.3705499999999997  4.5586399999999996  5.3583299999999996
  2.3365700000000000  3.4937999999999998  6.5332299999999996
  7.3399299999999998  2.8119700000000001  4.1077100000000000
  5.4725400000000004  2.8504200000000002 11.0047599999999992
  3.9748500000000000  2.7190500000000002 10.8145299999999995
  7.1934100000000001  3.4860000000000002  5.3217400000000001
  5.4562600000000003  4.3085899999999997  8.0124200000000005
  4.1266900000000000  3.5147300000000001  8.1310400000000005
 -0.0252900000000000  2.5105499999999998  5.9479199999999999
  7.2857000000000003  0.8189200000000000  2.8468200000000001
  4.2996699999999999  1.9397100000000000 13.9291699999999992
  6.4100500000000000  2.3581400000000001 15.0846599999999995
  7.1343699999999997  1.4386699999999999  4.0519999999999996
  5.5667099999999996  4.9621500000000003  8.8809900000000006
  7.4693300000000002  4.2039900000000001 11.3510200000000001
  1.1654400000000000  2.0432600000000001  4.7439200000000001
  6.0815099999999997  4.0926700000000000 11.2398600000000002
  5.1870300000000000  2.8104200000000001 14.5916099999999993
  6.8454499999999996  2.7826200000000001  6.4827599999999999
  3.0103000000000000  2.5107200000000001 13.3902099999999997
  7.0887700000000002  3.0465200000000001 15.5787200000000006
  7.0916899999999998 -0.1255500000000000  2.9614900000000000
  6.7314400000000001  3.4851500000000000  7.8125999999999998
  1.3403799999999999  0.6606500000000000 14.5039099999999994
  6.7896299999999998  0.7228400000000000  5.1928000000000001
  7.5985100000000001  4.1520099999999998  7.9157099999999998
  7.9235300000000004  5.1809200000000004 11.4928000000000008
  6.6477700000000004  1.3961900000000000  6.4063800000000004
  1.1590199999999999 -0.9578100000000001 16.6510600000000011
  4.9349200000000000  3.8617800000000000 14.7145799999999998
  5.4826100000000002  4.9985400000000002 11.2976399999999995
  1.1799999999999999  0.0898100000000000 16.9480399999999989
  1.3010200000000001  1.0996300000000001 15.9635200000000008
  6.6376299999999997 -0.3507700000000000  5.1622899999999996
  6.8384799999999997  2.7434699999999999  8.5980500000000006
  6.3943000000000003  0.8321800000000000  7.3013300000000001
  1.0454200000000000  0.3904200000000000 18.3063199999999995
  0.9240699999999999 -0.4167200000000000 19.0216400000000014
  1.2994399999999999  2.4268800000000001 16.4005900000000011
  1.3559699999999999  3.2534200000000002 15.7024299999999997
  1.0593500000000000  1.7166200000000000 18.7058999999999997
  1.1981400000000000  2.7316900000000000 17.7670700000000004
  0.8031300000000000  1.2556000000000000 20.5409299999999995
  0.9232600000000000  2.0648900000000001 20.0171899999999994
  1.2108000000000001  3.7667700000000002 18.0975000000000001
  3.4216600000000001  3.4275199999999999  9.5213400000000004
  3.1678500000000001  3.3007000000000000 12.0404199999999992
  3.5813700000000002  4.2862900000000002 12.2915799999999997
  2.1475300000000002  3.5169600000000001 11.6920000000000002
  3.7225000000000001  1.6528900000000000 10.7307199999999998
  1.7464000000000000  1.6142399999999999 13.3399300000000007
  2.7343700000000002  3.2949500000000000 14.1074699999999993
  1.8196800000000000  0.9936600000000000 12.4352599999999995
  0.8952000000000000  2.2880199999999999 13.1602800000000002
 -0.0708300000000000  0.1254300000000000 14.1539300000000008
  2.0274999999999999 -0.1937100000000000 14.4609199999999998
 -0.8233000000000000  0.9189300000000000 14.2468500000000002
 -0.3792500000000000 -0.6937000000000000 14.8124800000000008
 -0.1062000000000000 -0.2546200000000000 13.1277200000000001
  4.2414899999999998  2.5141499999999999  7.7012700000000001
  3.1213199999999999  4.4475899999999999  9.7955500000000004
  2.4663499999999998  2.9103500000000002  9.3248899999999999
  7.9338957399999996 15.6822573399999996 15.6890487099999998
  9.4025713900000003 15.0454106799999998 16.3981547899999995
  8.6147606999999997 14.8253565900000002 15.6683258199999997
  1.4424306899999999 10.3235392200000007 10.0826408900000004
  7.6751558600000003 13.8811339599999997 18.1452612500000008
  6.3037879900000000 14.4340343600000001 17.1725898599999987
  5.9953589300000001 14.9745930299999994 14.5735955500000003
  3.8959338799999998 10.4673927399999993 10.2673552499999996
  7.0546704099999999 13.6431260099999996 17.2743128199999987
  9.0613402399999998 14.7912862100000009 14.6693622900000005
  1.9204210900000001 11.2949738400000008 10.1732137599999994
  3.7489016600000000  9.4091425900000001  6.6574091900000001
  3.3122355500000000 11.3844479100000004 10.2807341700000006
  1.7009465800000001  9.8605417699999993  5.8022414900000001
  7.9007434999999999 13.5058102000000009 16.0027403200000009
  3.8475819499999999 10.4878513299999998  6.7137001200000004
  6.1315403699999997 13.7796097399999997 14.3525438600000008
  1.6894540100000000 10.8256838299999991  5.7061646599999998
  1.9787223300000001 11.4579048700000001 18.1822871699999986
  6.5060376700000004 12.7171587200000005 17.4799160299999983
  5.7621637200000002 10.3706206600000002  7.6726053700000003
  9.6380197299999999 12.6800056199999993 17.0540481799999988
  5.0012435599999998 11.0403711100000006  7.2839201899999999
  1.1420655099999999 12.4495604899999996 10.2038851800000003
  3.7806853700000000 14.0788840900000007 14.5699736000000009
  2.8406382500000000 11.3240881299999998  6.2410140600000004
  0.0592270000000000 12.3800513100000007 10.1482580799999997
  8.9711030899999997 12.4285063200000003 16.2225989599999991
  1.9768473099999999 13.0338009699999997 16.2739765399999996
  7.0775285400000003 12.9878365200000001 14.9189240900000009
  2.3134031199999998 11.1263271199999991 17.2035558900000005
  3.9463543300000001 12.6319335499999994 10.4120507500000006
  5.4513967399999999 12.7066745700000006 10.5726185499999996
  2.3181221500000002 12.0118835199999996 16.1240092299999986
  3.8269115999999999 13.5431137699999997 13.6114424899999999
  5.2587750399999997 12.9996333199999992 13.3536889700000003
  9.5790340399999998 12.3021101000000002 15.3189247999999996
  2.7115369600000001  8.9811269500000002 18.1005722999999996
  5.1579058299999998 12.4283018500000004  7.3710200500000003
  2.9747962600000002 12.7011770199999994  6.3110595399999996
  2.7296317399999999  9.8131259199999992 17.0203408699999983
  3.5912841800000002 14.3095779600000004 12.8693063300000006
  1.7554684000000000 13.6944472299999997 10.3105542400000001
  8.5108914400000000 11.4555680100000004 16.4271900100000003
  3.1465583100000001 13.7849303600000006 10.3970106399999995
  4.1276775299999997 13.2490071500000006  6.8715774800000000
  2.7355535600000001 11.5800542199999992 14.8578885799999991
  6.3593922100000002 13.0942191599999997  7.9971110300000001
  2.1837257600000002 13.3485495000000007  5.9453554600000000
  3.0452240200000000  8.1123152699999999 17.8237476599999987
  2.7003261500000000 12.5079694499999992 13.6692955200000004
  8.2604659799999993 11.7462040299999995  6.5756704800000003
  3.1464030699999999  9.3652345599999993 15.7719907999999993
  1.7381956999999999 13.0382417600000000 13.6854379799999997
  1.1521767199999999 14.5977171400000003 10.3411166800000007
  3.1466379700000000 10.2493217100000003 14.6927824200000003
  8.6249622000000006 10.5660782500000003  4.1804663199999998
  4.2110420000000000 14.3322819399999997  6.9316190899999999
  3.5967714599999998 14.7699666500000006 10.4951524999999997
  8.4340133900000005 11.6325242400000004  4.0692168700000000
  8.1882483900000000 12.4281377400000004  5.2138830299999999
  3.4628176599999998  8.3394656200000004 15.6159357500000002
  2.6854771899999998 11.9035056499999996 12.7676961000000002
  3.4572031600000002  9.8929111200000008 13.7130831900000008
  8.4801697100000002 12.1775219600000000  2.7830404400000002
  8.7030544299999999 11.5332573499999995  1.9385707800000000
  7.9723316799999999 13.7940201299999998  5.0129589399999999
  7.8099645500000001 14.4702500399999998  5.8437064599999999
  8.2502132600000007 13.5335614799999995  2.6189017600000000
  7.9847289999999997 14.3392800299999994  3.7195230600000002
  8.5196342999999999 13.4379604300000004  0.7310998700000000
  8.2919182100000004 14.1171530099999991  1.3872461400000000
  7.8029328099999997 15.4005320900000005  3.5731363300000001
  5.9271057599999999 13.2623038700000002 11.9673465799999992
  6.1222931599999999 13.6079983500000008  9.4636165499999994
  5.5545863500000001 14.5447127900000002  9.3878350899999994
  7.1070367499999998 13.9190723199999997  9.8414139200000008
  5.8673579699999996 11.6948134199999991 10.4700756699999999
  7.7472371999999998 12.4118267200000005  7.8881407599999998
  6.4897354800000002 14.0226312699999998  7.4255538999999997
  7.7974047100000003 11.6424712100000001  8.6720365600000004
  8.4894491100000007 13.1702065299999997  8.1793049599999996
  9.7470694099999999 11.3872888999999997  6.8239652599999996
  7.7147500000000004 10.7999575199999995  6.4721106600000002
 10.3652145499999992 12.2930903399999991  6.8676437100000003
 10.1582447499999997 10.7510338300000008  6.0328272900000002
  9.8711071199999996 10.8482571100000005  7.7688755100000000
  5.3123334499999997 11.9350200799999993 13.6042318899999994
  6.0584193099999997 14.3484768900000006 11.8728850500000007
  6.9561032599999999 12.8755888699999996 12.0687874900000001
  1.0702100000000001 26.1162300000000016  6.2083399999999997
 -0.2784400000000000 25.3931000000000004  5.3576699999999997
  0.5321500000000000 25.1741600000000005  6.0624599999999997
  8.3066899999999997 20.9335500000000003 11.0104199999999999
  1.6149800000000001 24.8287699999999987  3.4899499999999999
  2.8799800000000002 25.4096599999999988  4.5830099999999998
  3.0927199999999999 25.5335099999999997  7.2441199999999997
  5.8615100000000000 20.7274799999999999 10.7799399999999999
  2.2627500000000000 24.5421799999999983  4.3256899999999998
  0.0937300000000000 24.8994399999999985  7.0272600000000001
  7.6824700000000004 21.8205999999999989 11.0725099999999994
  6.1629199999999997 19.0962800000000001 14.1595200000000006
  6.2941500000000001 21.7118299999999991 10.9404100000000000
  8.1123700000000003 19.7029800000000002 15.1396999999999995
  1.4452400000000001 24.0583300000000015  5.5294999999999996
  5.8963900000000002 20.1401900000000005 14.2849500000000003
  3.1450900000000002 24.3118100000000013  7.2541599999999997
  7.9720500000000003 20.6270300000000013 15.3991299999999995
  7.6211099999999998 23.3553700000000006  3.2101999999999999
  2.9504100000000002 23.7614699999999992  3.9817399999999998
  4.0265199999999997 19.8970599999999997 13.2635100000000001
 -0.1381100000000000 23.1691900000000004  4.3015900000000000
  4.6718900000000003 20.5985900000000015 13.7831200000000003
  8.2701399999999996 23.0689999999999991 11.2622199999999992
  5.4204699999999999 25.0027000000000008  7.1610100000000001
  6.7583900000000003 21.0270499999999991 14.9229900000000004
  9.3503200000000000 23.1585700000000010 11.3374100000000002
  0.5577400000000000 22.8834599999999995  5.0975099999999998
  7.3705499999999997 24.5586400000000005  5.3583299999999996
  2.3365700000000000 23.4938000000000002  6.5332299999999996
  7.3399299999999998 22.8119699999999987  4.1077100000000000
  5.4725400000000004 22.8504199999999997 11.0047599999999992
  3.9748500000000000 22.7190499999999993 10.8145299999999995
  7.1934100000000001 23.4860000000000007  5.3217400000000001
  5.4562600000000003 24.3085899999999988  8.0124200000000005
  4.1266900000000000 23.5147300000000001  8.1310400000000005
 -0.0252900000000000 22.5105499999999985  5.9479199999999999
  7.2857000000000003 20.8189199999999985  2.8468200000000001
  4.2996699999999999 21.9397100000000016 13.9291699999999992
  6.4100500000000000 22.3581399999999988 15.0846599999999995
  7.1343699999999997 21.4386699999999983  4.0519999999999996
  5.5667099999999996 24.9621500000000012  8.8809900000000006
  7.4693300000000002 24.2039900000000010 11.3510200000000001
  1.1654400000000000 22.0432600000000001  4.7439200000000001
  6.0815099999999997 24.0926699999999983 11.2398600000000002
  5.1870300000000000 22.8104200000000006 14.5916099999999993
  6.8454499999999996 22.7826200000000014  6.4827599999999999
  3.0103000000000000 22.5107199999999992 13.3902099999999997
  7.0887700000000002 23.0465200000000010 15.5787200000000006
  7.0916899999999998 19.8744499999999995  2.9614900000000000
  6.7314400000000001 23.4851500000000009  7.8125999999999998
  1.3403799999999999 20.6606500000000004 14.5039099999999994
  6.7896299999999998 20.7228400000000015  5.1928000000000001
  7.5985100000000001 24.1520100000000006  7.9157099999999998
  7.9235300000000004 25.1809200000000004 11.4928000000000008
  6.6477700000000004 21.3961900000000007  6.4063800000000004
  1.1590199999999999 19.0421900000000015 16.6510600000000011
  4.9349200000000000 23.8617799999999995 14.7145799999999998
  5.4826100000000002 24.9985399999999984 11.2976399999999995
  1.1799999999999999 20.0898099999999999 16.9480399999999989
  1.3010200000000001 21.0996300000000012 15.9635200000000008
  6.6376299999999997 19.6492299999999993  5.1622899999999996
  6.8384799999999997 22.7434699999999985  8.5980500000000006
  6.3943000000000003 20.8321800000000010  7.3013300000000001
  1.0454200000000000 20.3904199999999989 18.3063199999999995
  0.9240699999999999 19.5832799999999985 19.0216400000000014
  1.2994399999999999 22.4268800000000006 16.4005900000000011
  1.3559699999999999 23.2534199999999984 15.7024299999999997
  1.0593500000000000 21.7166199999999989 18.7058999999999997
  1.1981400000000000 22.7316900000000004 17.7670700000000004
  0.8031300000000000 21.2556000000000012 20.5409299999999995
  0.9232600000000000 22.0648899999999983 20.0171899999999994
  1.2108000000000001 23.7667700000000011 18.0975000000000001
  3.4216600000000001 23.4275200000000012  9.5213400000000004
  3.1678500000000001 23.3006999999999991 12.0404199999999992
  3.5813700000000002 24.2862900000000010 12.2915799999999997
  2.1475300000000002 23.5169600000000010 11.6920000000000002
  3.7225000000000001 21.6528899999999993 10.7307199999999998
  1.7464000000000000 21.6142399999999988 13.3399300000000007
  2.7343700000000002 23.2949500000000000 14.1074699999999993
  1.8196800000000000 20.9936599999999984 12.4352599999999995
  0.8952000000000000 22.2880199999999995 13.1602800000000002
 -0.0708300000000000 20.1254300000000015 14.1539300000000008
  2.0274999999999999 19.8062900000000006 14.4609199999999998
 -0.8233000000000000 20.9189299999999996 14.2468500000000002
 -0.3792500000000000 19.3063000000000002 14.8124800000000008
 -0.1062000000000000 19.7453800000000008 13.1277200000000001
  4.2414899999999998 22.5141500000000008  7.7012700000000001
  3.1213199999999999 24.4475900000000017  9.7955500000000004
  2.4663499999999998 22.9103500000000011  9.3248899999999999
  7.9338957399999996 35.6822573399999996 15.6890487099999998
  9.4025713900000003 35.0454106800000034 16.3981547899999995
  8.6147606999999997 34.8253565899999984 15.6683258199999997
  1.4424306899999999 30.3235392200000007 10.0826408900000004
  7.6751558600000003 33.8811339599999997 18.1452612500000008
  6.3037879900000000 34.4340343599999983 17.1725898599999987
  5.9953589300000001 34.9745930300000012 14.5735955500000003
  3.8959338799999998 30.4673927400000011 10.2673552499999996
  7.0546704099999999 33.6431260100000031 17.2743128199999987
  9.0613402399999998 34.7912862100000027 14.6693622900000005
  1.9204210900000001 31.2949738400000008 10.1732137599999994
  3.7489016600000000 29.4091425899999983  6.6574091900000001
  3.3122355500000000 31.3844479099999987 10.2807341700000006
  1.7009465800000001 29.8605417700000011  5.8022414900000001
  7.9007434999999999 33.5058101999999991 16.0027403200000009
  3.8475819499999999 30.4878513300000016  6.7137001200000004
  6.1315403699999997 33.7796097399999979 14.3525438600000008
  1.6894540100000000 30.8256838299999991  5.7061646599999998
  1.9787223300000001 31.4579048700000001 18.1822871699999986
  6.5060376700000004 32.7171587200000005 17.4799160299999983
  5.7621637200000002 30.3706206600000002  7.6726053700000003
  9.6380197299999999 32.6800056200000029 17.0540481799999988
  5.0012435599999998 31.0403711099999988  7.2839201899999999
  1.1420655099999999 32.4495604900000032 10.2038851800000003
  3.7806853700000000 34.0788840900000025 14.5699736000000009
  2.8406382500000000 31.3240881299999998  6.2410140600000004
  0.0592270000000000 32.3800513099999989 10.1482580799999997
  8.9711030899999997 32.4285063199999968 16.2225989599999991
  1.9768473099999999 33.0338009700000015 16.2739765399999996
  7.0775285400000003 32.9878365200000019 14.9189240900000009
  2.3134031199999998 31.1263271199999991 17.2035558900000005
  3.9463543300000001 32.6319335499999994 10.4120507500000006
  5.4513967399999999 32.7066745699999970 10.5726185499999996
  2.3181221500000002 32.0118835199999978 16.1240092299999986
  3.8269115999999999 33.5431137699999979 13.6114424899999999
  5.2587750399999997 32.9996333200000009 13.3536889700000003
  9.5790340399999998 32.3021101000000002 15.3189247999999996
  2.7115369600000001 28.9811269500000002 18.1005722999999996
  5.1579058299999998 32.4283018499999969  7.3710200500000003
  2.9747962600000002 32.7011770200000029  6.3110595399999996
  2.7296317399999999 29.8131259200000009 17.0203408699999983
  3.5912841800000002 34.3095779599999986 12.8693063300000006
  1.7554684000000000 33.6944472300000015 10.3105542400000001
  8.5108914400000000 31.4555680100000004 16.4271900100000003
  3.1465583100000001 33.7849303599999971 10.3970106399999995
  4.1276775299999997 33.2490071499999971  6.8715774800000000
  2.7355535600000001 31.5800542200000010 14.8578885799999991
  6.3593922100000002 33.0942191600000015  7.9971110300000001
  2.1837257600000002 33.3485494999999972  5.9453554600000000
  3.0452240200000000 28.1123152699999999 17.8237476599999987
  2.7003261500000000 32.5079694499999974 13.6692955200000004
  8.2604659799999993 31.7462040300000012  6.5756704800000003
  3.1464030699999999 29.3652345600000011 15.7719907999999993
  1.7381956999999999 33.0382417599999982 13.6854379799999997
  1.1521767199999999 34.5977171400000003 10.3411166800000007
  3.1466379700000000 30.2493217100000003 14.6927824200000003
  8.6249622000000006 30.5660782500000003  4.1804663199999998
  4.2110420000000000 34.3322819400000014  6.9316190899999999
  3.5967714599999998 34.7699666500000006 10.4951524999999997
  8.4340133900000005 31.6325242399999986  4.0692168700000000
  8.1882483900000000 32.4281377399999968  5.2138830299999999
  3.4628176599999998 28.3394656199999986 15.6159357500000002
  2.6854771899999998 31.9035056499999996 12.7676961000000002
  3.4572031600000002 29.8929111200000008 13.7130831900000008
  8.4801697100000002 32.1775219600000000  2.7830404400000002
  8.7030544299999999 31.5332573499999995  1.9385707800000000
  7.9723316799999999 33.7940201299999998  5.0129589399999999
  7.8099645500000001 34.4702500400000034  5.8437064599999999
  8.2502132600000007 33.5335614800000030  2.6189017600000000
  7.9847289999999997 34.3392800299999976  3.7195230600000002
  8.5196342999999999 33.4379604299999968  0.7310998700000000
  8.2919182100000004 34.1171530100000027  1.3872461400000000
  7.8029328099999997 35.4005320899999987  3.5731363300000001
  5.9271057599999999 33.2623038699999967 11.9673465799999992
  6.1222931599999999 33.6079983500000026  9.4636165499999994
  5.5545863500000001 34.5447127899999984  9.3878350899999994
  7.1070367499999998 33.9190723199999979  9.8414139200000008
  5.8673579699999996 31.6948134199999991 10.4700756699999999
  7.7472371999999998 32.4118267200000005  7.8881407599999998
  6.4897354800000002 34.0226312699999980  7.4255538999999997
  7.7974047100000003 31.6424712100000001  8.6720365600000004
  8.4894491100000007 33.1702065300000015  8.1793049599999996
  9.7470694099999999 31.3872889000000015  6.8239652599999996
  7.7147500000000004 30.7999575199999995  6.4721106600000002
 10.3652145499999992 32.2930903399999991  6.8676437100000003
 10.1582447499999997 30.7510338300000008  6.0328272900000002
  9.8711071199999996 30.8482571099999987  7.7688755100000000
  5.3123334499999997 31.9350200800000010 13.6042318899999994
  6.0584193099999997 34.3484768900000006 11.8728850500000007
  6.9561032599999999 32.8755888700000014 12.0687874900000001
