amorphous Si3N4
1.0
        11.5792    0.00    0.00
        0.00    11.5792    0.00
        0.00    0.00    11.5792
Si N
60 80
Cartesian
9.8639372 7.0062839 11.1734779
9.3777408 11.3382868 9.0010905
10.7565314 5.5553086 4.2381185
4.0671234 2.7314401 10.9187568
9.4341754 6.3275422 6.2490287
8.7050456 2.2500907 10.4269279
5.8233965 7.5209023 2.3615293
9.0407705 10.3878607 2.2699761
10.8581054 8.8846802 4.6905004
6.6997556 1.2348084 5.5480193
7.1416763 1.0911210 2.7503220
4.3824069 1.1621665 1.8958445
7.9078055 8.7315355 9.1741210
0.6036598 0.3407731 2.4448629
5.2062446 11.0293251 0.8394899
8.1537927 2.9246700 3.5015658
5.6293052 9.9815219 4.6681945
2.6208296 4.4601178 7.9903608
7.1769437 1.9824029 8.1190261
6.0246179 7.3397855 6.5848940
11.3278123 1.7375721 10.4883731
6.5498391 8.8249283 0.3274544
10.9767987 7.2752586 1.7765443
3.5391235 1.2919165 7.6885306
8.3738124 10.7244245 4.3873566
3.8238281 5.2283700 1.7745612
2.2497348 2.1045214 10.0717537
3.9589320 5.3283498 6.1044799
11.1202644 9.1168645 7.4033799
7.7434182 6.5732487 1.3966971
3.5805652 6.9647371 3.8929765
2.9806212 0.4549855 4.5173074
2.3080082 4.8387368 11.0732681
1.5119621 9.7202071 3.0620016
8.8942967 4.6222801 8.8402634
0.6741212 4.2213656 1.7819097
11.3238295 7.9003251 9.9203102
1.5738124 7.3457306 6.0128923
2.4375628 9.2855535 8.1305541
4.0443459 9.4293099 10.4154740
11.2737539 4.8536588 10.2876647
2.1076455 11.3085371 0.2652569
6.9125366 4.0849750 2.1813169
6.1301655 4.5885485 5.0526200
10.5502709 3.2871364 5.0327258
3.7389245 9.1461425 5.2117355
11.2923912 6.1577274 7.8168534
10.6893896 2.2727228 8.3878061
6.3051771 4.1218994 0.1727542
5.9960119 4.9458470 7.9002792
4.2738475 5.4775311 10.2914572
3.4707124 11.2562838 9.5160541
7.4707557 8.7583262 2.7861629
3.8946009 2.5626564 4.9331885
9.6640705 0.4693061 6.3454167
1.9010355 4.8380453 4.1969630
5.0388066 7.4166221 8.4872603
5.9322708 1.5686277 10.6448149
6.5672189 10.4671621 9.9251155
10.5051798 1.7595939 1.9032646
8.6282448 9.3571120 3.6749486
4.2684424 6.6796051 2.4718136
4.9659263 10.4227290 9.3562632
0.7212401 4.8002345 0.1016603
10.2234241 7.1587886 4.8941095
6.6737401 5.6573701 6.4033458
7.1632451 2.7011867 11.0735781
7.3343712 4.4568429 3.7938112
9.9310475 5.1792278 7.4941959
4.9284382 9.3870439 0.4099234
10.7046519 2.0257175 6.4909440
7.9339705 1.3284160 6.6419183
2.6054313 10.2888052 10.6630725
5.5902538 2.7517153 5.3975335
3.5988265 1.3516074 10.0169631
11.5553575 7.5864855 0.0625416
6.8281996 11.0175150 5.2946325
3.0571605 8.6970256 3.6666657
5.4390998 8.6059743 5.5363350
2.0163738 6.5402851 4.4214728
0.3578838 4.3360784 4.7499737
4.4441398 6.8367403 6.9939190
6.3875244 0.0420803 11.1826574
10.7979196 0.7039507 9.2578086
0.5493669 2.2486768 2.0369214
4.7770925 5.7168543 4.7147701
2.2563672 4.5580012 2.5173571
9.3552340 3.1074940 9.0595124
9.4861127 8.0973334 9.8930237
2.3382206 2.6195238 8.3171264
4.0757658 10.7410891 4.8641755
6.6701601 8.0363851 8.0322787
7.3584350 1.7014334 4.2452201
11.0471158 5.5238605 2.4544895
3.0297168 4.0960682 5.1901842
5.7280989 0.2741251 2.2748682
2.6322358 3.2369138 11.2680169
0.0222942 8.6493641 3.0471775
1.2884426 10.5897266 1.4968456
2.7973676 5.1748818 9.4740389
0.6777746 9.0312174 8.7682708
1.3600174 11.3410979 3.9853897
9.8700416 2.6290391 3.4523556
0.1026912 6.2868341 9.3701341
7.3449547 7.0234756 2.9552898
9.9132691 10.7016757 5.0840388
1.3381040 5.8361545 7.1717553
3.6021205 1.7017540 3.3944698
9.3096924 7.2137011 1.1561355
4.3501092 4.3841478 7.3942331
6.3850004 7.3112027 0.7087327
8.2913377 0.0142614 2.9084300
3.4846221 5.8539641 0.2362807
10.0581384 10.7571668 7.5178365
5.5146627 6.0805089 9.2807064
9.5925238 5.2945163 10.4686558
11.5596218 3.2464967 9.4804497
10.3237963 7.5201472 7.2780397
2.6717961 8.6264629 6.5162093
3.1936813 1.4122099 5.9695351
5.9006419 9.1814853 3.1192340
5.0724011 4.1110864 10.5711775
7.8886827 9.5683777 1.2318308
4.7943092 2.0083534 0.4390205
3.6488243 8.3191863 9.2047232
1.2203137 1.0416646 10.9456818
10.5088832 11.5352099 2.1127721
5.4532875 1.5723979 8.5974648
3.5671828 0.0467797 1.0766359
6.9426417 8.9163668 10.4419529
9.5964411 4.7830923 5.2530311
7.6105250 4.9782822 0.9327676
7.9587274 10.4011280 8.8696772
2.8195935 11.1522462 8.0394706
7.5903563 2.5189000 2.0145524
7.3020361 3.8632578 8.3086492
5.2874608 4.1314571 1.7112170
0.3889587 8.7410237 5.9218007
8.2969430 1.1166128 9.2388050
10.0182775 1.9651168 0.1098825
