Silane                                  
   1.00000000000000     
     7.6664503359999996    0.0000000000000000    0.0000000000000000
    -3.8332250580000000    6.6393405579999998    0.0000000000000000
     0.0000000000000000    0.0000000000000000   29.2392359999999982
   C    H    F 
     1     3     1
Selective dynamics
Direct
  0.5000000000000000  0.5000000000000000  0.5000000000000000   T   T   T
  0.5705871911403511  0.6639925777949987  0.4958646831994911   T   T   T
  0.3676654812973378  0.4224343759423864  0.4776377843578891   T   T   T
  0.4568163553118423  0.4573976795196287  0.5358541341860212   T   T   T
  0.6405798847206187  0.4414513538958279  0.4875004593681688   T   T   T
 
  0.00000000E+00  0.00000000E+00  0.00000000E+00
  0.00000000E+00  0.00000000E+00  0.00000000E+00
  0.00000000E+00  0.00000000E+00  0.00000000E+00
  0.00000000E+00  0.00000000E+00  0.00000000E+00
  0.00000000E+00  0.00000000E+00  0.00000000E+00
