Beta-Si3N4                              
   1.00000000000000     
     7.6664503359999996    0.0000000000000000    0.0000000000000000
    -3.8332250580000000    6.6393405579999998    0.0000000000000000
     0.0000000000000000    0.0000000000000000   43.8588539999999938
   Si   N    H    C    F    Ar
    48    67    15     0     0     1
Selective dynamics
Direct
  0.3824058641514362  0.1724011396546970  0.3386670609707577   T   T   T
  0.7506221973695119  0.5877072206875394  0.3380793841408141   T   T   T
  0.7996414538382085  0.2231429161042009  0.3380285033304655   T   T   T
  0.2050721436074592  0.4004225683118763  0.3044484186467499   T   T   T
  0.5750187332961766  0.8151950542833298  0.3040523492740451   T   T   T
  0.1581455691555833  0.7682285315892236  0.3047223013032124   T   T   T
  0.3708958806601596  0.1394246989933697  0.4066080558425099   T   T   T
  0.7352790488206395  0.5887375819324362  0.4057193986007154   T   T   T
  0.7957684587697337  0.2222871472290038  0.4054978528094447   T   T   T
  0.1998849609509122  0.4034826962910887  0.3702411337594567   T   T   T
  0.5757813596612612  0.8194532856230330  0.3697720633619835   T   T   T
  0.1506804471151838  0.7645308423564248  0.3717846358628800   T   T   T
  0.3893166888911597  0.0817977168435040  0.4722923782454098   T   T   T
  0.6510611627345112  0.6038867838589559  0.4733448823276773   T   T   T
  0.8784565875144810  0.3538810414424448  0.4718601126409899   T   T   T
  0.1933216258094447  0.3364791130318670  0.4395111736858650   T   T   T
  0.5003290070974431  0.7995435781337031  0.4314382996111293   T   T   T
  0.1178069660594625  0.7004002231340318  0.4391757264013031   T   T   T
  0.2464283840857840  0.0831905635100807  0.5866118235888551   T   T   T
  0.9331436298765325  0.6186596794915400  0.5728454735394267   T   T   T
  0.6313503130843257  0.0803652345419449  0.5747793080727183   T   T   T
  0.1352727901945029  0.1601610553775915  0.5014405067110710   T   T   T
  0.7663980333844248  0.0776891193090483  0.5064313407381020   T   T   T
  0.9920498237492940  0.7706407625687908  0.5056451524114377   T   T   T
  0.1710576187753559  0.7647577460677201  0.0396490893465409   T   T   T
  0.5907084044635017  0.8288426010398470  0.0393656501447490   T   T   T
  0.2357208600580779  0.4083094023949630  0.0398185235163058   T   T   T
  0.7694260588328495  0.5948769628929750  0.0721105397584405   T   T   T
  0.4012192807961502  0.1772326730876887  0.0723695214812387   T   T   T
  0.8166150243867220  0.2253195365961555  0.0721935077138405   T   T   T
  0.1716950620398662  0.7689056383938078  0.1059280805159640   T   T   T
  0.2176985743462526  0.4003652326518803  0.1063681912756361   T   T   T
  0.5850165158414457  0.8173233232010344  0.1060133391481845   T   T   T
  0.7620015535785633  0.5898297944533866  0.1387063263807564   T   T   T
  0.3933043069887476  0.1720547005972464  0.1391056787869475   T   T   T
  0.8090893588965269  0.2207209720259735  0.1388810559162109   T   T   T
  0.1628826859466212  0.7644624070433976  0.1719876825464011   T   T   T
  0.2126182439267605  0.3982960374376207  0.1723012733359863   T   T   T
  0.5795501465300069  0.8153357434173386  0.1721486226569443   T   T   T
  0.7546091050203857  0.5865951570645086  0.2049222960154729   T   T   T
  0.3877020138138028  0.1698219103450069  0.2053506553507292   T   T   T
  0.8051588910102929  0.2217612159315953  0.2050486191310649   T   T   T
  0.1583494577867443  0.7649107918003736  0.2382412791918917   T   T   T
  0.2101107946177130  0.4002005531404942  0.2382953826175769   T   T   T
  0.5761553248529241  0.8155408924358589  0.2380662991580773   T   T   T
  0.7524252955933807  0.5867134488502052  0.2713508329835660   T   T   T
  0.3850081224620919  0.1716233847586675  0.2717384828494104   T   T   T
  0.8022288084849321  0.2221137509782845  0.2713911562787142   T   T   T
  0.3096011729677744  0.0290105868258218  0.3051497747556918   T   T   T
  0.6813916483106573  0.6605690440554071  0.3046119098341842   T   T   T
  0.3133028537814110  0.6619114738469916  0.3051396695981302   T   T   T
  0.9443472101464718  0.2944610688361346  0.3048383187478804   T   T   T
  0.6431842337324507  0.3270983954872663  0.3393174493983042   T   T   T
  0.0120814593171491  0.6952352039371422  0.3381108807505912   T   T   T
  0.6520016771020229  0.9614709307688415  0.3369841206611066   T   T   T
  0.2715872949474938  0.3251440183247858  0.3378808268539452   T   T   T
  0.3139433795460739  0.0227719729443545  0.3710859804208781   T   T   T
  0.6791392560850631  0.6622005634335216  0.3711329725419225   T   T   T
  0.3130257171348063  0.6646458892114906  0.3732559971489315   T   T   T
  0.9395673169566163  0.2959239789661167  0.3717782263027242   T   T   T
  0.6320224805089862  0.3228099029454043  0.4107722636125211   T   T   T
  0.1409609779832352  0.1224360329528309  0.4159742004322323   T   T   T
  0.6394023751595719  0.9644452639660632  0.4023490830768991   T   T   T
  0.2897244697954027  0.3420808712211130  0.4022918280366181   T   T   T
  0.3445511826465941  0.9470515981076466  0.4374104460983095   T   T   T
  0.6553890166185208  0.6864645909716914  0.4361224627542139   T   T   T
  0.2795325779806906  0.6041706036388025  0.4458368317927546   T   T   T
  0.9467269212335058  0.2978872251028931  0.4375906358460191   T   T   T
  0.6386448194908733  0.1514910086143469  0.4792475161636904   T   T   T
  0.9233713415639004  0.6081309508490274  0.4697070509089058   T   T   T
  0.8860068124937660  0.9327228485879576  0.4998914653126232   T   T   T
  0.3101881378340236  0.2681325514136233  0.4701893950633910   T   T   T
  0.2338022791847689  0.9528912823335358  0.5010566633963389   T   T   T
  0.6630878826208039  0.3423263983232775  0.5806619981139257   T   T   T
  0.9969287288366395  0.6803719092901925  0.4049669498723989   T   T   T
  0.9974794431222278  0.2994068843973105  0.5010135765825491   T   T   T
  0.5090538523405872  0.3507101088608349  0.5855600170866787   T   T   T
  0.9073046048214486  0.6213319637304260  0.5358937753050846   T   T   T
  0.6174767584615489  0.0456231261459382  0.5366620626270993   T   T   T
  0.2375983834079103  0.2187195045811036  0.5397120001100081   T   T   T
  0.3181220968819850  0.0236814772203783  0.0405868068301467   T   T   T
  0.7020965693843022  0.6819714565101228  0.0406949324770848   T   T   T
  0.3318661154417578  0.6672233937061814  0.0360911633881879   T   T   T
  0.9764949074488642  0.2993945577558029  0.0410889169874158   T   T   T
  0.6626038854346509  0.3329611609789756  0.0694996836279741   T   T   T
  0.0293444771842281  0.6977842541968918  0.0732735290366876   T   T   T
  0.6591479015122665  0.9650687447336703  0.0736269524346687   T   T   T
  0.2962747519716256  0.3324057154269531  0.0739765020123732   T   T   T
  0.3249566102140136  0.0311585448154464  0.1057964091786429   T   T   T
  0.6958320941572079  0.6657567983676049  0.1056196470239053   T   T   T
  0.3246525197832055  0.6613861727004416  0.1060383039655144   T   T   T
  0.9558789211932335  0.2920175160535695  0.1061058926286808   T   T   T
  0.6548584441119368  0.3281384014235031  0.1387281160289763   T   T   T
  0.0226418485091698  0.6975835953387001  0.1387790965459557   T   T   T
  0.6560540011029542  0.9604584866157589  0.1393056002821041   T   T   T
  0.2839393203161754  0.3233512605262811  0.1395735770996365   T   T   T
  0.3155823653297389  0.0257905981984936  0.1722633520547309   T   T   T
  0.6880472442594442  0.6627554203019238  0.1718264360427833   T   T   T
  0.3186945638451445  0.6593108489837266  0.1720453740168605   T   T   T
  0.9519363965084945  0.2914913270466737  0.1722684591458633   T   T   T
  0.6486143740084631  0.3257844933529095  0.2051493467556796   T   T   T
  0.0157158646011513  0.6932271110470906  0.2050181159481368   T   T   T
  0.6518705762901208  0.9606988536740578  0.2051907668088873   T   T   T
  0.2822503374091407  0.3250672456285854  0.2055522205410290   T   T   T
  0.3151816146309959  0.6607801043436674  0.2381630916603028   T   T   T
  0.3099518792015213  0.0262686301048320  0.2386098263461483   T   T   T
  0.6852498367364890  0.6631210464029290  0.2380973987514330   T   T   T
  0.9485644693863226  0.2919561218967161  0.2383806254894923   T   T   T
  0.6459034955952770  0.3260798713540787  0.2717033517083235   T   T   T
  0.0138081457380338  0.6960546152326823  0.2715098198544373   T   T   T
  0.6505532004442419  0.9603524327100829  0.2711758368028298   T   T   T
  0.2769188016097221  0.3249446650094326  0.2716446781839064   T   T   T
  0.4814580856366113  0.6498941128824480  0.9613707201334605   T   T   T
  0.3901774675823143  0.9650023604529039  0.5885340514855509   T   T   T
  0.8338353692118273  0.0779710782280537  0.5897641046860586   T   T   T
  0.0268236610000000  0.6949260300000000  0.0143742550000000   F   F   F
  0.6685957900000000  0.9767077000000000  0.0144212500000000   F   F   F
  0.3089730800000000  0.3352037500000000  0.0144120610000000   F   F   F
  0.4035619400000000  0.0929754240000000  0.0218402970000000   F   F   F
  0.6849500300000000  0.5959142300000000  0.0220741850000000   F   F   F
  0.9108843000000000  0.3149450800000000  0.0219243360000000   F   F   F
  0.5990298267606650  0.7276190682051789  0.9464090553387242   T   T   T
  0.4712909917140624  0.9958725831096223  0.5289958490247917   T   T   T
  0.1966243870243494  0.3154483134832687  0.5494070206997523   T   T   T
  0.3753259524084850  0.5256536475618666  0.9495740119750874   T   T   T
  0.4179405946647277  0.7390866903374305  0.9645384063228147   T   T   T
  0.8807181505193169  0.9815209469331524  0.5819317161884441   T   T   T
  0.3909355409739725  0.3048731876117665  0.5359509627884833   T   T   T
  0.3130089284939853  0.8151819090736744  0.5941673132390142   T   T   T
  0.8676721143726540  0.1046753885296528  0.6124513234309874   T   T   T
  0.4674235984562611  0.6456551924331829  0.5511324319573527   T   T   T
 
 -0.15381906E-04 -0.41339483E-05 -0.83408870E-05
  0.66862991E-05 -0.92179931E-05 -0.64436043E-05
 -0.10833740E-04 -0.58440015E-05 -0.44067625E-05
  0.22296048E-04 -0.30638664E-05  0.36360133E-05
 -0.12115965E-04  0.76908377E-06  0.11025149E-04
 -0.17010106E-05 -0.20525851E-04  0.33403900E-04
 -0.36913007E-04 -0.21027559E-04 -0.23885015E-05
  0.16977244E-05 -0.11552836E-04 -0.15696887E-04
  0.69252623E-05  0.33850915E-04  0.14230619E-04
  0.21374354E-05 -0.13124889E-05 -0.10100549E-04
 -0.45777728E-05 -0.98561106E-05  0.26124986E-05
 -0.11922666E-04  0.40846660E-07 -0.30022976E-05
  0.92405645E-05  0.26825107E-04 -0.29555287E-04
 -0.76849997E-05  0.23758152E-05 -0.18068042E-04
  0.13039779E-04 -0.57622071E-05  0.21046507E-04
  0.31442795E-04  0.57922852E-05 -0.24552780E-04
 -0.13874469E-04  0.10145198E-04  0.46720405E-06
  0.11038920E-04  0.32667883E-04 -0.11026467E-04
 -0.19381188E-04 -0.68200157E-05  0.10789883E-04
 -0.28668977E-04 -0.28875845E-04 -0.41450966E-05
 -0.26436153E-04  0.71976939E-04  0.10246038E-04
  0.57664979E-05  0.12931071E-05 -0.20373644E-04
  0.35910948E-04 -0.25272145E-05  0.13140763E-04
 -0.21416232E-04 -0.36805820E-04 -0.87762847E-06
 -0.10611076E-04 -0.38232918E-05  0.71165609E-05
  0.28102722E-05 -0.15213803E-04 -0.41117420E-05
 -0.21408195E-05 -0.29296619E-05 -0.91659637E-05
 -0.53580575E-05 -0.42993079E-05  0.52037303E-05
 -0.16378565E-05 -0.52372192E-05  0.19781036E-05
  0.13636331E-05 -0.13576815E-05  0.16794441E-05
 -0.64598794E-05  0.82529711E-05  0.26416120E-04
 -0.94174835E-05  0.16350311E-04 -0.27589266E-05
  0.12416576E-04 -0.65286201E-05 -0.12973856E-04
 -0.86960365E-05  0.76049184E-05  0.62881715E-05
 -0.13065527E-05 -0.13284195E-05  0.11921883E-04
  0.12562481E-04  0.10753213E-04  0.53129885E-05
  0.14856446E-05  0.17197895E-04  0.27313439E-04
  0.55615462E-06  0.53839034E-06  0.43225528E-05
  0.69666618E-05  0.44220194E-05 -0.18299209E-04
  0.74022781E-06  0.33016024E-05  0.14761976E-04
  0.82775097E-05  0.77539269E-05  0.14043320E-05
  0.56639265E-05  0.26194756E-05  0.11045435E-04
  0.17787772E-04 -0.36573538E-05  0.16271370E-04
 -0.91952901E-05 -0.12309249E-05  0.56823436E-05
 -0.51837880E-05 -0.18838942E-05  0.19022715E-05
 -0.49421134E-05  0.35622674E-05  0.10088738E-04
 -0.24102687E-05 -0.61919690E-06  0.79004227E-05
 -0.19094241E-05 -0.30054427E-05 -0.30383632E-05
 -0.56957546E-05  0.13942696E-04  0.19594973E-05
 -0.20474117E-05  0.16824737E-04  0.63639242E-05
  0.10729975E-04  0.32967009E-06 -0.80121036E-06
  0.17426946E-04  0.19441443E-05 -0.37330125E-05
 -0.13244041E-04 -0.17387958E-05 -0.18390823E-04
 -0.13387279E-04  0.46485735E-05  0.26326338E-05
  0.46621368E-06 -0.87252861E-05  0.33551965E-05
  0.49333266E-05 -0.22534664E-04 -0.14518423E-04
 -0.14453395E-04 -0.30729662E-04 -0.22892910E-04
 -0.92250586E-05 -0.91790332E-05  0.88722460E-05
 -0.53994460E-05 -0.83222184E-05  0.19117804E-05
  0.36074188E-05 -0.43102118E-04 -0.10976631E-04
 -0.29609507E-04  0.14707523E-04 -0.50637124E-05
  0.42318669E-04 -0.40041442E-04  0.22264614E-04
 -0.81847829E-05 -0.19570296E-04 -0.71480630E-05
  0.31272633E-04  0.57181845E-04 -0.20167866E-04
 -0.88575786E-05  0.26593221E-04 -0.15783153E-04
  0.11942559E-04 -0.13068032E-04 -0.27613787E-04
  0.41193979E-04  0.29402509E-06 -0.74898744E-05
  0.24150134E-04  0.16385359E-04 -0.24535207E-04
  0.35750076E-04  0.54156670E-04 -0.25531265E-06
  0.23851838E-04 -0.20910237E-04 -0.12055382E-04
  0.39695515E-04  0.10285645E-04  0.19886338E-05
 -0.29528353E-04 -0.15880662E-04  0.10352322E-03
  0.40442686E-04  0.32941090E-05  0.35475615E-04
  0.71772513E-04 -0.59170839E-04  0.63216074E-04
  0.13272049E-04 -0.31915024E-06 -0.39090489E-04
  0.16021882E-05 -0.45519302E-05 -0.52398895E-04
 -0.14671466E-05  0.97548318E-05 -0.11080985E-04
 -0.99728908E-05  0.18810345E-04  0.17758392E-04
  0.22312201E-04 -0.18687118E-04  0.90043426E-04
  0.13743352E-04  0.47399624E-04  0.26038811E-04
  0.76433417E-05  0.69452977E-06  0.19473786E-04
  0.16024431E-05 -0.29062082E-04  0.24157710E-04
 -0.10201086E-04 -0.76049924E-05 -0.16329403E-04
  0.28356808E-05 -0.20293844E-04  0.12977859E-04
 -0.26312126E-05 -0.37936890E-05 -0.29310227E-05
 -0.24541048E-05  0.52011711E-05  0.13115200E-04
  0.10009424E-04 -0.11865777E-04 -0.14124853E-04
 -0.11552577E-04 -0.65381270E-06 -0.57077082E-05
  0.62880270E-06  0.51730952E-05  0.99728816E-05
  0.11973518E-05 -0.90097119E-05  0.46882909E-05
  0.61600903E-06  0.78779517E-05  0.80500642E-07
 -0.85822694E-05  0.11183794E-04 -0.32429855E-07
  0.16871769E-05  0.91523513E-06  0.33299243E-05
  0.48196869E-06 -0.17988762E-05  0.18222173E-04
  0.90021579E-05  0.76077171E-05 -0.15311030E-04
 -0.74730285E-06  0.96105706E-05 -0.47993485E-05
  0.85398870E-05  0.11370195E-04 -0.75074349E-05
  0.41800800E-05  0.15337768E-05 -0.93746790E-05
 -0.68524451E-05  0.45853081E-05  0.25288458E-04
 -0.25601577E-05  0.37260945E-05 -0.53620092E-05
  0.12682307E-04  0.22168688E-05  0.37076480E-05
 -0.44092232E-05  0.16990077E-04  0.31887814E-05
  0.15319167E-04 -0.62627724E-05 -0.17468314E-04
 -0.15539901E-04 -0.13825865E-04 -0.13930282E-04
  0.76573661E-05 -0.23970369E-05  0.35730808E-04
  0.19991684E-04  0.34492343E-06  0.52270875E-05
 -0.86741786E-05 -0.16247436E-04  0.94563392E-05
 -0.31145411E-05  0.41845434E-05  0.14890317E-04
 -0.61854191E-05  0.19688650E-05 -0.10243913E-04
  0.54173031E-05 -0.12610378E-05  0.19379663E-04
  0.61051929E-05  0.81414809E-05  0.13893128E-04
  0.37234990E-05  0.37187259E-05  0.15019619E-04
  0.21926774E-04 -0.42233310E-05  0.18158629E-04
  0.14471791E-04 -0.18138882E-04  0.28422773E-04
 -0.71294711E-04 -0.12303051E-04  0.46917287E-04
  0.00000000E+00  0.00000000E+00  0.00000000E+00
  0.00000000E+00  0.00000000E+00  0.00000000E+00
  0.00000000E+00  0.00000000E+00  0.00000000E+00
  0.00000000E+00  0.00000000E+00  0.00000000E+00
  0.00000000E+00  0.00000000E+00  0.00000000E+00
  0.00000000E+00  0.00000000E+00  0.00000000E+00
 -0.33392999E-03 -0.34152677E-03  0.88867697E-04
 -0.18242003E-03  0.17396128E-03 -0.27461084E-04
  0.27912209E-04  0.16701024E-04 -0.19150721E-03
  0.37774399E-03  0.43326340E-03  0.15108576E-03
  0.10328948E-03 -0.60860539E-04 -0.45438524E-04
  0.21575185E-04  0.30912187E-04  0.94744679E-04
 -0.32155543E-05 -0.23568619E-04  0.41735998E-03
  0.14964325E-04  0.20760787E-04 -0.10742696E-04
  0.76831023E-05 -0.44465567E-04 -0.28319399E-04
 -0.42113729E-05 -0.13879535E-04  0.50418182E-05
 
           1
  0.500000000000000     
  0.10000000E+01  0.00000000E+00  0.00000000E+00  0.00000000E+00
  0.38240471E+00  0.17240083E+00  0.33866697E+00
  0.75062229E+00  0.58770653E+00  0.33807931E+00
  0.79964053E+00  0.22314248E+00  0.33802845E+00
  0.20507348E+00  0.40042234E+00  0.30444846E+00
  0.57501797E+00  0.81519511E+00  0.30405247E+00
  0.15814469E+00  0.76822699E+00  0.30472268E+00
  0.37089268E+00  0.13942312E+00  0.40660803E+00
  0.73527872E+00  0.58873671E+00  0.40571922E+00
  0.79577019E+00  0.22228970E+00  0.40549802E+00
  0.19988505E+00  0.40348260E+00  0.37024102E+00
  0.57578069E+00  0.81945254E+00  0.36977209E+00
  0.15067967E+00  0.76453085E+00  0.37178460E+00
  0.38931830E+00  0.81799737E-01  0.47229204E+00
  0.65106075E+00  0.60388696E+00  0.47334468E+00
  0.87845722E+00  0.35388061E+00  0.47186035E+00
  0.19332389E+00  0.33647955E+00  0.43951089E+00
  0.50032848E+00  0.79954434E+00  0.43143830E+00
  0.11780892E+00  0.70040268E+00  0.43917560E+00
  0.24642686E+00  0.83190050E-01  0.58661195E+00
  0.93314067E+00  0.61865750E+00  0.57284543E+00
  0.63135130E+00  0.80370655E-01  0.57477942E+00
  0.13527321E+00  0.16016115E+00  0.50144027E+00
  0.76640028E+00  0.77688929E-01  0.50643149E+00
  0.99204704E+00  0.77063799E+00  0.50564514E+00
  0.17105678E+00  0.76475746E+00  0.39649170E-01
  0.59070801E+00  0.82884146E+00  0.39365603E-01
  0.23572061E+00  0.40830918E+00  0.39818419E-01
  0.76942555E+00  0.59487664E+00  0.72110599E-01
  0.40121898E+00  0.17723228E+00  0.72369544E-01
  0.81661506E+00  0.22531943E+00  0.72193527E-01
  0.17169495E+00  0.76890626E+00  0.10592838E+00
  0.21769858E+00  0.40036646E+00  0.10636816E+00
  0.58501708E+00  0.81732283E+00  0.10601319E+00
  0.76200127E+00  0.58983037E+00  0.13870640E+00
  0.39330417E+00  0.17205460E+00  0.13910581E+00
  0.80909058E+00  0.22072178E+00  0.13888112E+00
  0.16288343E+00  0.76446370E+00  0.17198799E+00
  0.21261830E+00  0.39829608E+00  0.17230132E+00
  0.57955077E+00  0.81533608E+00  0.17214841E+00
  0.75460928E+00  0.58659541E+00  0.20492246E+00
  0.38770285E+00  0.16982249E+00  0.20535067E+00
  0.80515936E+00  0.22176141E+00  0.20504875E+00
  0.15835048E+00  0.76491052E+00  0.23824146E+00
  0.21011015E+00  0.40020046E+00  0.23829545E+00
  0.57615492E+00  0.81554075E+00  0.23806632E+00
  0.75242511E+00  0.58671372E+00  0.27135095E+00
  0.38500794E+00  0.17162334E+00  0.27173857E+00
  0.80222857E+00  0.22211352E+00  0.27139112E+00
  0.30960133E+00  0.29011637E-01  0.30514980E+00
  0.68139215E+00  0.66057031E+00  0.30461198E+00
  0.31330357E+00  0.66191150E+00  0.30513966E+00
  0.94434842E+00  0.29446122E+00  0.30483828E+00
  0.64318330E+00  0.32709826E+00  0.33931724E+00
  0.12080761E-01  0.69523555E+00  0.33811091E+00
  0.65200138E+00  0.96147027E+00  0.33698416E+00
  0.27158677E+00  0.32514232E+00  0.33788066E+00
  0.31394128E+00  0.22769659E-01  0.37108572E+00
  0.67913831E+00  0.66219987E+00  0.37113307E+00
  0.31302505E+00  0.66464526E+00  0.37325602E+00
  0.93956593E+00  0.29592073E+00  0.37177810E+00
  0.63202110E+00  0.32281101E+00  0.41077221E+00
  0.14096223E+00  0.12243302E+00  0.41597445E+00
  0.63940110E+00  0.96444379E+00  0.40234900E+00
  0.28972866E+00  0.34208518E+00  0.40229160E+00
  0.34455161E+00  0.94705360E+00  0.43741027E+00
  0.65538930E+00  0.68646361E+00  0.43612215E+00
  0.27953528E+00  0.60417063E+00  0.44583675E+00
  0.94672911E+00  0.29788846E+00  0.43759036E+00
  0.63864919E+00  0.15149509E+00  0.47924751E+00
  0.92337211E+00  0.60812938E+00  0.46970691E+00
  0.88600979E+00  0.93272362E+00  0.49989149E+00
  0.31018561E+00  0.26813136E+00  0.47019058E+00
  0.23380504E+00  0.95289153E+00  0.50105707E+00
  0.66309034E+00  0.34232194E+00  0.58066272E+00
  0.99692958E+00  0.68037189E+00  0.40496650E+00
  0.99747938E+00  0.29940654E+00  0.50101298E+00
  0.50905412E+00  0.35071084E+00  0.58555989E+00
  0.90730466E+00  0.62133338E+00  0.53589398E+00
  0.61747751E+00  0.45621719E-01  0.53666309E+00
  0.23760106E+00  0.21872307E+00  0.53971230E+00
  0.31812262E+00  0.23681530E-01  0.40587029E-01
  0.70209558E+00  0.68196927E+00  0.40695208E-01
  0.33186516E+00  0.66722282E+00  0.36090977E-01
  0.97649433E+00  0.29939303E+00  0.41089065E-01
  0.66260357E+00  0.33296088E+00  0.69499650E-01
  0.29344513E-01  0.69778465E+00  0.73273679E-01
  0.65914811E+00  0.96506785E+00  0.73626791E-01
  0.29627397E+00  0.33240567E+00  0.73976437E-01
  0.32495685E+00  0.31158934E-01  0.10579652E+00
  0.69583183E+00  0.66575612E+00  0.10561970E+00
  0.32465286E+00  0.66138677E+00  0.10603830E+00
  0.95587878E+00  0.29201836E+00  0.10610589E+00
  0.65485859E+00  0.32813847E+00  0.13872815E+00
  0.22641812E-01  0.69758346E+00  0.13877930E+00
  0.65605487E+00  0.96045906E+00  0.13930543E+00
  0.28393963E+00  0.32335198E+00  0.13957352E+00
  0.31558335E+00  0.25791454E-01  0.17226327E+00
  0.68804757E+00  0.66275554E+00  0.17182633E+00
  0.31869429E+00  0.65931119E+00  0.17204566E+00
  0.95193637E+00  0.29149161E+00  0.17226840E+00
  0.64861528E+00  0.32578466E+00  0.20514939E+00
  0.15716217E-01  0.69322839E+00  0.20501815E+00
  0.65187134E+00  0.96069838E+00  0.20519057E+00
  0.28224880E+00  0.32506620E+00  0.20555206E+00
  0.31518202E+00  0.66077992E+00  0.23816350E+00
  0.30995320E+00  0.26268656E-01  0.23860989E+00
  0.68524866E+00  0.66311982E+00  0.23809751E+00
  0.94856442E+00  0.29195644E+00  0.23838080E+00
  0.64590317E+00  0.32608002E+00  0.27170323E+00
  0.13808452E-01  0.69605452E+00  0.27151004E+00
  0.65055391E+00  0.96035305E+00  0.27117600E+00
  0.27691918E+00  0.32494495E+00  0.27164485E+00
  0.48145936E+00  0.64989379E+00  0.96137093E+00
  0.39017773E+00  0.96500099E+00  0.58853438E+00
  0.83383026E+00  0.77970152E-01  0.58976464E+00
  0.26823661E-01  0.69492603E+00  0.14374255E-01
  0.66859579E+00  0.97670770E+00  0.14421250E-01
  0.30897308E+00  0.33520375E+00  0.14412061E-01
  0.40356194E+00  0.92975424E-01  0.21840297E-01
  0.68495003E+00  0.59591423E+00  0.22074185E-01
  0.91088430E+00  0.31494508E+00  0.21924336E-01
  0.59899519E+00  0.72759335E+00  0.94641007E+00
  0.47128564E+00  0.99588568E+00  0.52899554E+00
  0.19662684E+00  0.31544957E+00  0.54940484E+00
  0.37536690E+00  0.52568628E+00  0.94957573E+00
  0.41794504E+00  0.73908211E+00  0.96453789E+00
  0.88072072E+00  0.98152327E+00  0.58193280E+00
  0.39093444E+00  0.30487141E+00  0.53595572E+00
  0.31301069E+00  0.81518347E+00  0.59416719E+00
  0.86767094E+00  0.10467204E+00  0.61245100E+00
  0.46742280E+00  0.64565415E+00  0.55113249E+00
  0.00000000E+00  0.00000000E+00  0.00000000E+00
  0.00000000E+00  0.00000000E+00  0.00000000E+00
  0.00000000E+00  0.00000000E+00  0.00000000E+00
  0.00000000E+00  0.00000000E+00  0.00000000E+00
  0.00000000E+00  0.00000000E+00  0.00000000E+00
  0.00000000E+00  0.00000000E+00  0.00000000E+00
  0.00000000E+00  0.00000000E+00  0.00000000E+00
  0.00000000E+00  0.00000000E+00  0.00000000E+00
  0.00000000E+00  0.00000000E+00  0.00000000E+00
  0.00000000E+00  0.00000000E+00  0.00000000E+00
  0.00000000E+00  0.00000000E+00  0.00000000E+00
  0.00000000E+00  0.00000000E+00  0.00000000E+00
  0.00000000E+00  0.00000000E+00  0.00000000E+00
  0.00000000E+00  0.00000000E+00  0.00000000E+00
  0.00000000E+00  0.00000000E+00  0.00000000E+00
  0.00000000E+00  0.00000000E+00  0.00000000E+00
  0.00000000E+00  0.00000000E+00  0.00000000E+00
  0.00000000E+00  0.00000000E+00  0.00000000E+00
  0.00000000E+00  0.00000000E+00  0.00000000E+00
  0.00000000E+00  0.00000000E+00  0.00000000E+00
  0.00000000E+00  0.00000000E+00  0.00000000E+00
  0.00000000E+00  0.00000000E+00  0.00000000E+00
  0.00000000E+00  0.00000000E+00  0.00000000E+00
  0.00000000E+00  0.00000000E+00  0.00000000E+00
  0.00000000E+00  0.00000000E+00  0.00000000E+00
  0.00000000E+00  0.00000000E+00  0.00000000E+00
  0.00000000E+00  0.00000000E+00  0.00000000E+00
  0.00000000E+00  0.00000000E+00  0.00000000E+00
  0.00000000E+00  0.00000000E+00  0.00000000E+00
  0.00000000E+00  0.00000000E+00  0.00000000E+00
  0.00000000E+00  0.00000000E+00  0.00000000E+00
  0.00000000E+00  0.00000000E+00  0.00000000E+00
  0.00000000E+00  0.00000000E+00  0.00000000E+00
  0.00000000E+00  0.00000000E+00  0.00000000E+00
  0.00000000E+00  0.00000000E+00  0.00000000E+00
  0.00000000E+00  0.00000000E+00  0.00000000E+00
  0.00000000E+00  0.00000000E+00  0.00000000E+00
  0.00000000E+00  0.00000000E+00  0.00000000E+00
  0.00000000E+00  0.00000000E+00  0.00000000E+00
  0.00000000E+00  0.00000000E+00  0.00000000E+00
  0.00000000E+00  0.00000000E+00  0.00000000E+00
  0.00000000E+00  0.00000000E+00  0.00000000E+00
  0.00000000E+00  0.00000000E+00  0.00000000E+00
  0.00000000E+00  0.00000000E+00  0.00000000E+00
  0.00000000E+00  0.00000000E+00  0.00000000E+00
  0.00000000E+00  0.00000000E+00  0.00000000E+00
  0.00000000E+00  0.00000000E+00  0.00000000E+00
  0.00000000E+00  0.00000000E+00  0.00000000E+00
  0.00000000E+00  0.00000000E+00  0.00000000E+00
  0.00000000E+00  0.00000000E+00  0.00000000E+00
  0.00000000E+00  0.00000000E+00  0.00000000E+00
  0.00000000E+00  0.00000000E+00  0.00000000E+00
  0.00000000E+00  0.00000000E+00  0.00000000E+00
  0.00000000E+00  0.00000000E+00  0.00000000E+00
  0.00000000E+00  0.00000000E+00  0.00000000E+00
  0.00000000E+00  0.00000000E+00  0.00000000E+00
  0.00000000E+00  0.00000000E+00  0.00000000E+00
  0.00000000E+00  0.00000000E+00  0.00000000E+00
  0.00000000E+00  0.00000000E+00  0.00000000E+00
  0.00000000E+00  0.00000000E+00  0.00000000E+00
  0.00000000E+00  0.00000000E+00  0.00000000E+00
  0.00000000E+00  0.00000000E+00  0.00000000E+00
  0.00000000E+00  0.00000000E+00  0.00000000E+00
  0.00000000E+00  0.00000000E+00  0.00000000E+00
  0.00000000E+00  0.00000000E+00  0.00000000E+00
  0.00000000E+00  0.00000000E+00  0.00000000E+00
  0.00000000E+00  0.00000000E+00  0.00000000E+00
  0.00000000E+00  0.00000000E+00  0.00000000E+00
  0.00000000E+00  0.00000000E+00  0.00000000E+00
  0.00000000E+00  0.00000000E+00  0.00000000E+00
  0.00000000E+00  0.00000000E+00  0.00000000E+00
  0.00000000E+00  0.00000000E+00  0.00000000E+00
  0.00000000E+00  0.00000000E+00  0.00000000E+00
  0.00000000E+00  0.00000000E+00  0.00000000E+00
  0.00000000E+00  0.00000000E+00  0.00000000E+00
  0.00000000E+00  0.00000000E+00  0.00000000E+00
  0.00000000E+00  0.00000000E+00  0.00000000E+00
  0.00000000E+00  0.00000000E+00  0.00000000E+00
  0.00000000E+00  0.00000000E+00  0.00000000E+00
  0.00000000E+00  0.00000000E+00  0.00000000E+00
  0.00000000E+00  0.00000000E+00  0.00000000E+00
  0.00000000E+00  0.00000000E+00  0.00000000E+00
  0.00000000E+00  0.00000000E+00  0.00000000E+00
  0.00000000E+00  0.00000000E+00  0.00000000E+00
  0.00000000E+00  0.00000000E+00  0.00000000E+00
  0.00000000E+00  0.00000000E+00  0.00000000E+00
  0.00000000E+00  0.00000000E+00  0.00000000E+00
  0.00000000E+00  0.00000000E+00  0.00000000E+00
  0.00000000E+00  0.00000000E+00  0.00000000E+00
  0.00000000E+00  0.00000000E+00  0.00000000E+00
  0.00000000E+00  0.00000000E+00  0.00000000E+00
  0.00000000E+00  0.00000000E+00  0.00000000E+00
  0.00000000E+00  0.00000000E+00  0.00000000E+00
  0.00000000E+00  0.00000000E+00  0.00000000E+00
  0.00000000E+00  0.00000000E+00  0.00000000E+00
  0.00000000E+00  0.00000000E+00  0.00000000E+00
  0.00000000E+00  0.00000000E+00  0.00000000E+00
  0.00000000E+00  0.00000000E+00  0.00000000E+00
  0.00000000E+00  0.00000000E+00  0.00000000E+00
  0.00000000E+00  0.00000000E+00  0.00000000E+00
  0.00000000E+00  0.00000000E+00  0.00000000E+00
  0.00000000E+00  0.00000000E+00  0.00000000E+00
  0.00000000E+00  0.00000000E+00  0.00000000E+00
  0.00000000E+00  0.00000000E+00  0.00000000E+00
  0.00000000E+00  0.00000000E+00  0.00000000E+00
  0.00000000E+00  0.00000000E+00  0.00000000E+00
  0.00000000E+00  0.00000000E+00  0.00000000E+00
  0.00000000E+00  0.00000000E+00  0.00000000E+00
  0.00000000E+00  0.00000000E+00  0.00000000E+00
  0.00000000E+00  0.00000000E+00  0.00000000E+00
  0.00000000E+00  0.00000000E+00  0.00000000E+00
  0.00000000E+00  0.00000000E+00  0.00000000E+00
  0.00000000E+00  0.00000000E+00  0.00000000E+00
  0.00000000E+00  0.00000000E+00  0.00000000E+00
  0.00000000E+00  0.00000000E+00  0.00000000E+00
  0.00000000E+00  0.00000000E+00  0.00000000E+00
  0.00000000E+00  0.00000000E+00  0.00000000E+00
  0.00000000E+00  0.00000000E+00  0.00000000E+00
  0.00000000E+00  0.00000000E+00  0.00000000E+00
  0.00000000E+00  0.00000000E+00  0.00000000E+00
  0.00000000E+00  0.00000000E+00  0.00000000E+00
  0.00000000E+00  0.00000000E+00  0.00000000E+00
  0.00000000E+00  0.00000000E+00  0.00000000E+00
  0.00000000E+00  0.00000000E+00  0.00000000E+00
  0.00000000E+00  0.00000000E+00  0.00000000E+00
  0.00000000E+00  0.00000000E+00  0.00000000E+00
  0.00000000E+00  0.00000000E+00  0.00000000E+00
  0.00000000E+00  0.00000000E+00  0.00000000E+00
  0.00000000E+00  0.00000000E+00  0.00000000E+00
  0.00000000E+00  0.00000000E+00  0.00000000E+00
  0.00000000E+00  0.00000000E+00  0.00000000E+00
  0.00000000E+00  0.00000000E+00  0.00000000E+00
  0.00000000E+00  0.00000000E+00  0.00000000E+00
  0.00000000E+00  0.00000000E+00  0.00000000E+00
  0.00000000E+00  0.00000000E+00  0.00000000E+00
  0.00000000E+00  0.00000000E+00  0.00000000E+00
  0.00000000E+00  0.00000000E+00  0.00000000E+00
  0.00000000E+00  0.00000000E+00  0.00000000E+00
  0.00000000E+00  0.00000000E+00  0.00000000E+00
  0.00000000E+00  0.00000000E+00  0.00000000E+00
  0.00000000E+00  0.00000000E+00  0.00000000E+00
  0.00000000E+00  0.00000000E+00  0.00000000E+00
  0.00000000E+00  0.00000000E+00  0.00000000E+00
  0.00000000E+00  0.00000000E+00  0.00000000E+00
  0.00000000E+00  0.00000000E+00  0.00000000E+00