Beta-Si3N4                              
   1.00000000000000     
     7.6664503359999996    0.0000000000000000    0.0000000000000000
    -3.8332250580000000    6.6393405579999998    0.0000000000000000
     0.0000000000000000    0.0000000000000000   29.2392359999999982
   Si   N    H 
    24    35    15
Selective dynamics
Direct
  0.1739744600000000  0.7732865900000000  0.0596944120000000   F   F   F
  0.5960002900000000  0.8296819500000000  0.0596944120000000   F   F   F
  0.2303296900000000  0.4076004200000000  0.0596944460000000   F   F   F
  0.7745258758506378  0.5985637948612176  0.1080512397523607   T   T   T
  0.4069081614929324  0.1836870793294736  0.1082149036422453   T   T   T
  0.8241851141805187  0.2336744550923104  0.1078028632729465   T   T   T
  0.1805491499872134  0.7776631341273188  0.1588640836450313   T   T   T
  0.2329450298163789  0.4136926439481672  0.1585022474678529   T   T   T
  0.5981796803892314  0.8287886501452320  0.1590776718350110   T   T   T
  0.7735483943569942  0.6012736043620417  0.2079148416145133   T   T   T
  0.4105601044345083  0.1870538402365589  0.2077408887562422   T   T   T
  0.8276136325156471  0.2389400822321994  0.2074354920133848   T   T   T
  0.1847327579118231  0.7798444158036487  0.2576920506192987   T   T   T
  0.2292610630272293  0.4125012943393993  0.2578470259315332   T   T   T
  0.6014815696257501  0.8330014616433846  0.2579672492165805   T   T   T
  0.7798440720878770  0.6014971261847026  0.3081731966842979   T   T   T
  0.4132591196562875  0.1917479622002333  0.3075608888718278   T   T   T
  0.8261417648879246  0.2418962671037276  0.3079495553946622   T   T   T
  0.1929878875171586  0.7888234252620072  0.3568930361207425   T   T   T
  0.2281159491981282  0.4137613115120187  0.3571461896319060   T   T   T
  0.6049275057246194  0.8308490187237231  0.3564275147760764   T   T   T
  0.8108931590989532  0.7495071680068830  0.4085809076652214   T   T   T
  0.3014430279133117  0.1058322726949275  0.4107477251295274   T   T   T
  0.9403480375897183  0.2001340014625452  0.4097763466063438   T   T   T
  0.3301448800000000  0.0297043050000000  0.0596943780000000   F   F   F
  0.7038897100000000  0.6736535000000000  0.0596943780000000   F   F   F
  0.3334875100000000  0.6702010500000000  0.0596944120000000   F   F   F
  0.9739240300000001  0.2999508700000000  0.0596944120000000   F   F   F
  0.6664937022506662  0.3367318238696022  0.1043917724492304   T   T   T
  0.0343233187654252  0.7112755705503495  0.1096241837957389   T   T   T
  0.6768610699686777  0.9725701641293045  0.1097187702398732   T   T   T
  0.3032402294017932  0.3375389291402086  0.1095840087212374   T   T   T
  0.3336676838854322  0.0403927966707566  0.1583609015563061   T   T   T
  0.7021186987387661  0.6717029158380842  0.1584854858006763   T   T   T
  0.3382845841530671  0.6755934630524579  0.1586316103153254   T   T   T
  0.9716966749704519  0.3134236718064842  0.1577411454979056   T   T   T
  0.6701345886475699  0.3409233694789070  0.2067428461957533   T   T   T
  0.0361202694204828  0.7052876862140484  0.2088271417859389   T   T   T
  0.6783704501398958  0.9780749937670957  0.2081724240497121   T   T   T
  0.2991193553890763  0.3365616524333115  0.2084660804106702   T   T   T
  0.3332841820010303  0.0428411763664540  0.2581048257845274   T   T   T
  0.7077116631118676  0.6786080964750701  0.2580835670216808   T   T   T
  0.3398289439132529  0.6767807595448018  0.2587218050842471   T   T   T
  0.9718218356491475  0.3081952161441801  0.2574393437776439   T   T   T
  0.6713213879016944  0.3429360131965909  0.3061962069116073   T   T   T
  0.0407158438758052  0.7120272329955195  0.3086498787421729   T   T   T
  0.6760350145373357  0.9787979025741330  0.3075519146206910   T   T   T
  0.3010419883684216  0.3409580640264539  0.3079676557762966   T   T   T
  0.3415805809628622  0.6766619547735034  0.3643828045287156   T   T   T
  0.3551575218578295  0.0465194839421557  0.3563703332583010   T   T   T
  0.6911008743887781  0.6576633850396962  0.3559987798428261   T   T   T
  0.9685604456853212  0.3265447378469249  0.3568443688266794   T   T   T
  0.4528148091954451  0.1287460737143834  0.4524494866589203   T   T   T
  0.0689296578971864  0.8086458878598917  0.4074664822355466   T   T   T
  0.7644452259416973  0.9504320684491353  0.4041836315713115   T   T   T
  0.1961852177893179  0.2587040342142941  0.4045410141144890   T   T   T
  0.7043921751710563  0.6152988066937816  0.4565467273594109   T   T   T
  0.3133803440084644  0.7123426391843124  0.6937280839238276   T   T   T
  0.8892992702350390  0.3062895231404239  0.4550384230472289   T   T   T
  0.0358686129746654  0.6981964441339543  0.0197900065859636   T   T   T
  0.6583515485636078  0.9623783104792946  0.0185528033411534   T   T   T
  0.2978113697647607  0.3423904938905211  0.0186264122842088   T   T   T
  0.4002503538787878  0.1005627457734021  0.0302905810556791   T   T   T
  0.6728047421443389  0.5819368167441438  0.0315360281099731   T   T   T
  0.9049795933422505  0.3006067918426036  0.0302184691064396   T   T   T
  0.6705586549131261  0.4674527480300261  0.4574772026055197   T   T   T
  0.4043788499890414  0.1572298713073307  0.4826391697283718   T   T   T
  0.3672583369619529  0.7492571500900388  0.6604325516357157   T   T   T
  0.5804009263255717  0.6241599034832988  0.4668896141441266   T   T   T
  0.1994174740500463  0.7462097724735554  0.6955808292414821   T   T   T
  0.7334707707060126  0.2292588843326953  0.4603353842270183   T   T   T
  0.0854620632492831  0.7346586395629224  0.4354817622690211   T   T   T
  0.2383826041610835  0.5572132796830572  0.6954871506881395   T   T   T
  0.9732266581144347  0.3388940463167062  0.4843225497956591   T   T   T
 
  0.00000000E+00  0.00000000E+00  0.00000000E+00
  0.00000000E+00  0.00000000E+00  0.00000000E+00
  0.00000000E+00  0.00000000E+00  0.00000000E+00
 -0.10197184E-02  0.23528094E-03  0.56805863E-03
 -0.16933140E-03 -0.69728499E-03 -0.10215265E-02
 -0.36631691E-03 -0.15607069E-02 -0.41431115E-03
  0.34264977E-04  0.79340816E-03  0.75914321E-03
 -0.56351146E-03  0.97353248E-03  0.39521065E-03
  0.19505173E-03 -0.12303400E-02  0.11653394E-03
  0.24289291E-03  0.16360802E-03 -0.64478133E-03
  0.16851751E-03 -0.84975085E-03  0.14985813E-03
  0.62157425E-03 -0.29472702E-03  0.40503803E-03
 -0.81062622E-04  0.57684631E-04  0.73735010E-04
 -0.79813270E-04  0.96921608E-03  0.55148661E-03
 -0.85324997E-03 -0.15764794E-02  0.31314384E-05
 -0.94510393E-03 -0.43978690E-03 -0.16659362E-02
  0.20024605E-03 -0.98658396E-03 -0.43283092E-03
  0.60132825E-03 -0.34119800E-03 -0.24727893E-03
  0.87038955E-03 -0.89936478E-03  0.64070664E-04
 -0.16715749E-03  0.62942632E-03  0.64373698E-03
 -0.21859538E-03 -0.31531417E-03  0.54475553E-03
 -0.49671093E-03 -0.61176845E-03  0.59894816E-03
  0.75037874E-04  0.12769283E-02 -0.17781248E-04
 -0.64953578E-03  0.54903452E-03 -0.10548960E-02
  0.00000000E+00  0.00000000E+00  0.00000000E+00
  0.00000000E+00  0.00000000E+00  0.00000000E+00
  0.00000000E+00  0.00000000E+00  0.00000000E+00
  0.00000000E+00  0.00000000E+00  0.00000000E+00
  0.14648297E-02 -0.88382175E-04  0.18785552E-02
 -0.10224686E-02  0.17012238E-04  0.14687172E-02
 -0.13546651E-02  0.10691179E-02 -0.27635879E-03
  0.15496800E-03  0.32151442E-03  0.10391033E-02
  0.50159308E-03  0.13623255E-02  0.72079684E-03
 -0.16414061E-03  0.74521965E-04  0.31352604E-03
  0.13435905E-02 -0.20355416E-02  0.12054023E-02
 -0.22906211E-03 -0.18926554E-02  0.73743926E-03
  0.12329862E-02 -0.75460346E-03  0.18302111E-02
 -0.22069450E-03  0.55283569E-03 -0.11950540E-03
  0.70804427E-03 -0.10882889E-02 -0.29564891E-03
  0.24644613E-02 -0.12846048E-03 -0.74437489E-03
  0.85029568E-03  0.57714332E-03  0.19105386E-03
  0.44164652E-03  0.21656912E-03 -0.11820082E-02
  0.91465265E-03 -0.45288023E-03  0.80493193E-03
 -0.54783555E-03 -0.10995366E-02 -0.34428066E-03
  0.25432321E-03  0.66426058E-03 -0.15392453E-02
 -0.48828626E-03 -0.95520741E-03 -0.17790075E-02
 -0.24975260E-03 -0.34082528E-03  0.19049064E-02
  0.67626972E-05 -0.12645935E-02  0.23417090E-03
 -0.64247178E-03 -0.44194929E-03 -0.34346786E-03
 -0.18512839E-02 -0.46071603E-03 -0.13584674E-03
  0.12776673E-02  0.12323720E-02  0.25830833E-03
 -0.11831509E-02  0.91394682E-03 -0.29137610E-03
 -0.40260836E-03 -0.99128894E-03 -0.34472228E-03
 -0.69225989E-04  0.42910360E-03 -0.51518212E-03
 -0.76380540E-03  0.13826780E-02 -0.15793100E-02
 -0.55212444E-03  0.14123393E-02  0.40362750E-03
 -0.99967140E-03  0.53911926E-03 -0.39346050E-03
  0.62039744E-03 -0.33433379E-03  0.37614860E-03
  0.22262032E-02  0.55071601E-03 -0.36879913E-03
  0.28035162E-02 -0.18858342E-02 -0.34877190E-02
  0.15609578E-02  0.89684420E-03 -0.43628640E-02
 -0.63552095E-03  0.12237021E-02 -0.52172409E-03
  0.32318173E-02 -0.18323654E-02  0.21797843E-02
 -0.74789332E-02  0.24211863E-02  0.14899715E-02
 -0.83368381E-03  0.46578663E-02  0.35891508E-02
 -0.26368437E-02 -0.35532910E-02  0.26013010E-02
  0.28423891E-02  0.16858090E-02  0.23887338E-02
 -0.56264364E-02 -0.36343894E-03  0.28391103E-03
  0.81225733E-02 -0.46045325E-02  0.36563945E-02
 -0.44710095E-03 -0.11908313E-02 -0.55398652E-02
 -0.33354171E-02 -0.86852002E-02  0.51312595E-02
  0.23886875E-02 -0.30378577E-02 -0.37687923E-02
 -0.28321977E-02  0.77679752E-02 -0.12449714E-02
  0.10418978E-01  0.11661440E-02 -0.37686481E-02
 
           1
   1.00000000000000     
  0.26862161E+03  0.18345048E+02  0.00000000E+00  0.00000000E+00
  0.17397446E+00  0.77328659E+00  0.59694412E-01
  0.59600029E+00  0.82968195E+00  0.59694412E-01
  0.23032969E+00  0.40760042E+00  0.59694446E-01
  0.77441058E+00  0.59859923E+00  0.10807067E+00
  0.40683356E+00  0.18358206E+00  0.10817997E+00
  0.82401980E+00  0.23343939E+00  0.10778869E+00
  0.18061337E+00  0.77778264E+00  0.15889005E+00
  0.23294484E+00  0.41383927E+00  0.15851576E+00
  0.59811247E+00  0.82860334E+00  0.15908166E+00
  0.77359240E+00  0.60129825E+00  0.20789279E+00
  0.41051809E+00  0.18692585E+00  0.20774601E+00
  0.82767251E+00  0.23889569E+00  0.20744934E+00
  0.18472653E+00  0.77985310E+00  0.25769457E+00
  0.22932364E+00  0.41264728E+00  0.25786589E+00
  0.60125155E+00  0.83276402E+00  0.25796736E+00
  0.77968767E+00  0.60143089E+00  0.30811622E+00
  0.41321094E+00  0.19159937E+00  0.30754609E+00
  0.82619451E+00  0.24184488E+00  0.30794110E+00
  0.19303369E+00  0.78868797E+00  0.35689523E+00
  0.22814155E+00  0.41385611E+00  0.35716821E+00
  0.60487525E+00  0.83080153E+00  0.35644615E+00
  0.81078230E+00  0.74941503E+00  0.40860139E+00
  0.30154898E+00  0.10602460E+00  0.41074712E+00
  0.94030466E+00  0.20021670E+00  0.40974027E+00
  0.33014488E+00  0.29704305E-01  0.59694378E-01
  0.70388971E+00  0.67365350E+00  0.59694378E-01
  0.33348751E+00  0.67020105E+00  0.59694412E-01
  0.97392403E+00  0.29995087E+00  0.59694412E-01
  0.66667812E+00  0.33671851E+00  0.10445602E+00
  0.34191231E-01  0.71127813E+00  0.10967441E+00
  0.67676488E+00  0.97273119E+00  0.10970932E+00
  0.30328466E+00  0.33758735E+00  0.10961955E+00
  0.33383571E+00  0.40597987E-01  0.15838555E+00
  0.70210290E+00  0.67171414E+00  0.15849621E+00
  0.33830655E+00  0.67528688E+00  0.15867284E+00
  0.97152426E+00  0.31313861E+00  0.15776637E+00
  0.67023859E+00  0.34080971E+00  0.20680544E+00
  0.36133116E-01  0.70537095E+00  0.20882305E+00
  0.67838085E+00  0.97791108E+00  0.20816231E+00
  0.29943114E+00  0.33654230E+00  0.20844062E+00
  0.33343856E+00  0.42928104E-01  0.25811136E+00
  0.70778558E+00  0.67864072E+00  0.25804314E+00
  0.33991414E+00  0.67671255E+00  0.25874933E+00
  0.97166757E+00  0.30802961E+00  0.25742757E+00
  0.67140459E+00  0.34303606E+00  0.30614356E+00
  0.40580217E-01  0.71188336E+00  0.30858904E+00
  0.67597677E+00  0.97874657E+00  0.30761706E+00
  0.30094764E+00  0.34076759E+00  0.30797566E+00
  0.34146350E+00  0.67659539E+00  0.36437106E+00
  0.35488135E+00  0.46450092E-01  0.35636569E+00
  0.69136034E+00  0.65784900E+00  0.35600761E+00
  0.96847495E+00  0.32668239E+00  0.35683440E+00
  0.45268764E+00  0.12859677E+00  0.45243770E+00
  0.68952943E-01  0.80871052E+00  0.40744886E+00
  0.76444972E+00  0.95064032E+00  0.40412962E+00
  0.19621956E+00  0.25891676E+00  0.40455482E+00
  0.70430238E+00  0.61538001E+00  0.45653327E+00
  0.31343609E+00  0.71229228E+00  0.69374095E+00
  0.88963113E+00  0.30637247E+00  0.45502581E+00
  0.36092280E-01  0.69791240E+00  0.19670724E-01
  0.65862270E+00  0.96251339E+00  0.18403591E-01
  0.29782063E+00  0.34257480E+00  0.18608569E-01
  0.40053391E+00  0.10028676E+00  0.30365131E-01
  0.67201154E+00  0.58230149E+00  0.31586986E-01
  0.90522163E+00  0.30130835E+00  0.30341220E-01
  0.66994712E+00  0.46691756E+00  0.45756617E+00
  0.40487656E+00  0.15748378E+00  0.48272087E+00
  0.36649706E+00  0.74920241E+00  0.66044226E+00
  0.58111366E+00  0.62346638E+00  0.46701467E+00
  0.19926947E+00  0.74603041E+00  0.69539136E+00
  0.73238163E+00  0.22795074E+00  0.46051088E+00
  0.85544863E-01  0.73420109E+00  0.43535287E+00
  0.23859817E+00  0.55838327E+00  0.69544457E+00
  0.97467351E+00  0.33906969E+00  0.48419366E+00
  0.00000000E+00  0.00000000E+00  0.00000000E+00
  0.00000000E+00  0.00000000E+00  0.00000000E+00
  0.00000000E+00  0.00000000E+00  0.00000000E+00
 -0.11456316E-03  0.40320269E-04  0.18633262E-04
 -0.76390100E-04 -0.94424116E-04 -0.34170983E-04
 -0.16996907E-03 -0.24130842E-03 -0.15988629E-04
  0.66873115E-04  0.12142344E-03  0.26360437E-04
  0.88959496E-06  0.14536339E-03  0.12903859E-04
 -0.72403313E-04 -0.19587879E-03  0.46723233E-05
  0.39145990E-04  0.24973473E-04 -0.25427017E-04
 -0.36610590E-04 -0.11973885E-03  0.35241705E-05
  0.56903874E-04 -0.49769748E-04  0.13303573E-04
  0.17591346E-05  0.38602729E-06  0.56737492E-06
  0.49386417E-04  0.14099676E-03  0.19002804E-04
 -0.23980821E-03 -0.24720272E-03  0.39977697E-06
 -0.14758062E-03 -0.59826326E-04 -0.56627180E-04
 -0.53552337E-04 -0.14846345E-03 -0.15663089E-04
  0.50767335E-04 -0.52124048E-04 -0.94514368E-05
  0.41932297E-04 -0.13845174E-03  0.38274188E-05
  0.34071667E-04  0.10488691E-03  0.21503318E-04
 -0.59298755E-04 -0.52484471E-04  0.16877528E-04
 -0.10826494E-03 -0.98888107E-04  0.23077168E-04
  0.11302548E-03  0.19680692E-03  0.14200447E-05
 -0.53704994E-04  0.79923624E-04 -0.33411079E-04
  0.00000000E+00  0.00000000E+00  0.00000000E+00
  0.00000000E+00  0.00000000E+00  0.00000000E+00
  0.00000000E+00  0.00000000E+00  0.00000000E+00
  0.00000000E+00  0.00000000E+00  0.00000000E+00
  0.16860362E-03 -0.24598904E-04  0.66353947E-04
 -0.13862288E-03  0.91545403E-05  0.47805437E-04
 -0.97704482E-04  0.16431150E-03 -0.82289178E-05
  0.63428149E-04  0.49611696E-04  0.37400041E-04
  0.17387935E-03  0.21790887E-03  0.25496820E-04
 -0.19004640E-04  0.89953771E-05  0.14260187E-04
  0.28453746E-04 -0.30385667E-03  0.41442202E-04
 -0.17513651E-03 -0.28254017E-03  0.28122377E-04
  0.10926546E-03 -0.12203209E-03  0.64144453E-04
  0.16601513E-04  0.80429766E-04 -0.19694766E-05
  0.25952340E-04 -0.15102290E-03 -0.10807136E-04
  0.31918465E-03 -0.30409191E-04 -0.24500572E-04
  0.15612373E-03  0.93072844E-04  0.96738119E-05
  0.67530315E-04  0.39239385E-04 -0.42090767E-04
  0.83916229E-04 -0.56531254E-04  0.27138323E-04
 -0.13729096E-03 -0.16593887E-03 -0.14765698E-04
  0.86300925E-04  0.93798527E-04 -0.53984601E-04
 -0.15558401E-03 -0.15526506E-03 -0.61822021E-04
 -0.52680880E-04 -0.45678991E-04  0.66048011E-04
 -0.10295049E-03 -0.20196999E-03  0.10040875E-04
 -0.13054262E-03 -0.83217141E-04 -0.12292933E-04
 -0.28348362E-03 -0.77089039E-04 -0.30263356E-05
  0.26414907E-03  0.19414778E-03  0.98275755E-05
 -0.90959503E-04  0.13965097E-03 -0.94109997E-05
 -0.13835362E-03 -0.14972808E-03 -0.12535218E-04
  0.38479061E-04  0.81537577E-04 -0.22873968E-04
  0.23424326E-04  0.23337811E-03 -0.51639558E-04
  0.41233082E-04  0.21986379E-03  0.11568861E-04
 -0.83265309E-04  0.80244318E-04 -0.18013311E-04
  0.63780884E-04 -0.50210697E-04  0.18225206E-04
  0.31742384E-03  0.71867331E-04 -0.14119860E-04
  0.19599859E-03 -0.33292784E-03 -0.10881441E-03
  0.26709023E-03  0.15350469E-03 -0.16375546E-03
 -0.30479468E-04  0.18161138E-03 -0.18783341E-04
  0.20817924E-03 -0.34276773E-03  0.10940784E-03
 -0.89782011E-03  0.23829071E-03  0.38616242E-06
  0.36216846E-03  0.71611472E-03  0.18320450E-03
 -0.57928625E-03 -0.43853534E-03  0.90565168E-04
  0.49486500E-03  0.19397062E-03  0.25949519E-04
 -0.68013283E-03  0.72387377E-04 -0.60819078E-04
  0.54435878E-03 -0.69796822E-03  0.14373503E-03
 -0.21559645E-03 -0.27212298E-03 -0.20356080E-03
 -0.96331312E-03 -0.13419231E-02  0.14473972E-03
  0.79787570E-04 -0.50920305E-03 -0.10742997E-03
  0.91791008E-04  0.11394000E-02 -0.33843146E-04
  0.16216042E-02  0.21727716E-03 -0.10889551E-03
  0.00000000E+00  0.00000000E+00  0.00000000E+00
  0.00000000E+00  0.00000000E+00  0.00000000E+00
  0.00000000E+00  0.00000000E+00  0.00000000E+00
  0.00000000E+00  0.00000000E+00  0.00000000E+00
  0.00000000E+00  0.00000000E+00  0.00000000E+00
  0.00000000E+00  0.00000000E+00  0.00000000E+00
  0.00000000E+00  0.00000000E+00  0.00000000E+00
  0.00000000E+00  0.00000000E+00  0.00000000E+00
  0.00000000E+00  0.00000000E+00  0.00000000E+00
  0.00000000E+00  0.00000000E+00  0.00000000E+00
  0.00000000E+00  0.00000000E+00  0.00000000E+00
  0.00000000E+00  0.00000000E+00  0.00000000E+00
  0.00000000E+00  0.00000000E+00  0.00000000E+00
  0.00000000E+00  0.00000000E+00  0.00000000E+00
  0.00000000E+00  0.00000000E+00  0.00000000E+00
  0.00000000E+00  0.00000000E+00  0.00000000E+00
  0.00000000E+00  0.00000000E+00  0.00000000E+00
  0.00000000E+00  0.00000000E+00  0.00000000E+00
  0.00000000E+00  0.00000000E+00  0.00000000E+00
  0.00000000E+00  0.00000000E+00  0.00000000E+00
  0.00000000E+00  0.00000000E+00  0.00000000E+00
  0.00000000E+00  0.00000000E+00  0.00000000E+00
  0.00000000E+00  0.00000000E+00  0.00000000E+00
  0.00000000E+00  0.00000000E+00  0.00000000E+00
  0.00000000E+00  0.00000000E+00  0.00000000E+00
  0.00000000E+00  0.00000000E+00  0.00000000E+00
  0.00000000E+00  0.00000000E+00  0.00000000E+00
  0.00000000E+00  0.00000000E+00  0.00000000E+00
  0.00000000E+00  0.00000000E+00  0.00000000E+00
  0.00000000E+00  0.00000000E+00  0.00000000E+00
  0.00000000E+00  0.00000000E+00  0.00000000E+00
  0.00000000E+00  0.00000000E+00  0.00000000E+00
  0.00000000E+00  0.00000000E+00  0.00000000E+00
  0.00000000E+00  0.00000000E+00  0.00000000E+00
  0.00000000E+00  0.00000000E+00  0.00000000E+00
  0.00000000E+00  0.00000000E+00  0.00000000E+00
  0.00000000E+00  0.00000000E+00  0.00000000E+00
  0.00000000E+00  0.00000000E+00  0.00000000E+00
  0.00000000E+00  0.00000000E+00  0.00000000E+00
  0.00000000E+00  0.00000000E+00  0.00000000E+00
  0.00000000E+00  0.00000000E+00  0.00000000E+00
  0.00000000E+00  0.00000000E+00  0.00000000E+00
  0.00000000E+00  0.00000000E+00  0.00000000E+00
  0.00000000E+00  0.00000000E+00  0.00000000E+00
  0.00000000E+00  0.00000000E+00  0.00000000E+00
  0.00000000E+00  0.00000000E+00  0.00000000E+00
  0.00000000E+00  0.00000000E+00  0.00000000E+00
  0.00000000E+00  0.00000000E+00  0.00000000E+00
  0.00000000E+00  0.00000000E+00  0.00000000E+00
  0.00000000E+00  0.00000000E+00  0.00000000E+00
  0.00000000E+00  0.00000000E+00  0.00000000E+00
  0.00000000E+00  0.00000000E+00  0.00000000E+00
  0.00000000E+00  0.00000000E+00  0.00000000E+00
  0.00000000E+00  0.00000000E+00  0.00000000E+00
  0.00000000E+00  0.00000000E+00  0.00000000E+00
  0.00000000E+00  0.00000000E+00  0.00000000E+00
  0.00000000E+00  0.00000000E+00  0.00000000E+00
  0.00000000E+00  0.00000000E+00  0.00000000E+00
  0.00000000E+00  0.00000000E+00  0.00000000E+00
  0.00000000E+00  0.00000000E+00  0.00000000E+00
  0.00000000E+00  0.00000000E+00  0.00000000E+00
  0.00000000E+00  0.00000000E+00  0.00000000E+00
  0.00000000E+00  0.00000000E+00  0.00000000E+00
  0.00000000E+00  0.00000000E+00  0.00000000E+00
  0.00000000E+00  0.00000000E+00  0.00000000E+00
  0.00000000E+00  0.00000000E+00  0.00000000E+00
  0.00000000E+00  0.00000000E+00  0.00000000E+00
  0.00000000E+00  0.00000000E+00  0.00000000E+00
  0.00000000E+00  0.00000000E+00  0.00000000E+00
  0.00000000E+00  0.00000000E+00  0.00000000E+00
  0.00000000E+00  0.00000000E+00  0.00000000E+00
  0.00000000E+00  0.00000000E+00  0.00000000E+00
  0.00000000E+00  0.00000000E+00  0.00000000E+00
  0.00000000E+00  0.00000000E+00  0.00000000E+00
