Beta-Si3N4                              
   1.00000000000000     
    15.3327999115000004    0.0000000000000000    0.0000000000000000
    -7.6664017239000000   13.2785932137000007    0.0000000000000000
     0.0000000000000000    0.0000000000000000    8.7890996933000007
   Si   N 
    72    96
Direct
  0.0863622346487056  0.3837582594306884  0.0833326523729943
  0.0863622374444215  0.3837582519397168  0.4166659758035102
  0.0863622273345180  0.3837582465337863  0.7499993264065968
  0.0863622478984587  0.8837582608087435  0.0833326475532989
  0.0863622440675170  0.8837582565617611  0.4166659780072953
  0.0863622433215250  0.8837582564742456  0.7499993255584436
  0.5863622359819706  0.3837582477903406  0.0833326625452335
  0.5863622380818670  0.3837582603385963  0.4166659887744796
  0.5863622360740174  0.3837582550253506  0.7499993124600740
  0.5863622452347883  0.8837582695428288  0.0833326522160710
  0.5863622551362778  0.8837582715634862  0.4166659832312584
  0.5863622477228125  0.8837582610005329  0.7499993232700430
  0.1143378898701882  0.2023545487677656  0.0833327027624844
  0.1143379092962291  0.2023545545058767  0.4166660164075333
  0.1143379026065430  0.2023545455851882  0.7499993672166514
  0.1143379118226082  0.7023545512803125  0.0833327023027380
  0.1143379046854331  0.7023545490044527  0.4166660180527939
  0.1143378947437256  0.7023545410628809  0.7499993681770198
  0.6143379088749317  0.2023545582053808  0.0833326913238297
  0.6143379023442456  0.2023545508695762  0.4166660301890432
  0.6143379049184919  0.2023545516365756  0.7499993674042028
  0.6143378988322726  0.7023545507225415  0.0833326988912419
  0.6143379041554363  0.7023545562835973  0.4166660364737956
  0.6143378950792303  0.7023545441510954  0.7499993542513816
  0.2957411238065302  0.4117213012560489  0.0833327130989729
  0.2957411262453248  0.4117212995843590  0.4166660384411274
  0.2957411289593933  0.4117212973534302  0.7499993582660089
  0.2957411261067455  0.9117213072411622  0.0833326988567412
  0.2957411280065750  0.9117213061912005  0.4166660396680511
  0.2957411230542926  0.9117213016756118  0.7499993723890513
  0.7957411183527533  0.4117212900751145  0.0833326900407963
  0.7957411211179928  0.4117212947732368  0.4166660378247956
  0.7957411201184985  0.4117212849582235  0.7499993719462498
  0.7957411263985192  0.9117212955178539  0.0833327042337180
  0.7957411138814970  0.9117212995589935  0.4166660243415952
  0.7957411166712953  0.9117213000956693  0.7499993751904677
  0.4112497783737302  0.1148166202022401  0.2499993756105599
  0.4112497678808746  0.1148166137854169  0.5833326915432331
  0.4112497681737101  0.1148166176180374  0.9166660268650996
  0.4112497754216508  0.6148166208589293  0.2499993729964927
  0.4112497658148572  0.6148166007288279  0.5833327053482424
  0.4112497725090687  0.6148166275382118  0.9166660269009063
  0.9112497593789423  0.1148166091121788  0.2499993525725939
  0.9112497574934518  0.1148166089022275  0.5833327047516130
  0.9112497570840885  0.1148166033878597  0.9166660389696374
  0.9112497577885409  0.6148166067124327  0.2499993725683432
  0.9112497505173777  0.6148165956081075  0.5833326996994875
  0.9112497455020288  0.6148165842891254  0.9166660339469006
  0.3832937604666952  0.2962032753918522  0.2499993132557290
  0.3832937550566778  0.2962032659622751  0.5833326673650009
  0.3832937646787289  0.2962032792087531  0.9166659833390168
  0.3832937625683644  0.7962032804268091  0.2499993338884944
  0.3832937578659751  0.7962032789744633  0.5833326482065966
  0.3832937392303105  0.7962032630901461  0.9166659853286441
  0.8832937410389157  0.2962032656272247  0.2499993197270766
  0.8832937449796233  0.2962032645714897  0.5833326558660051
  0.8832937389791718  0.2962032575719913  0.9166659929653250
  0.8832937511852209  0.7962032723767137  0.2499993173317685
  0.8832937337407039  0.7962032619671503  0.5833326563190850
  0.8832937498178102  0.7962032714151699  0.9166659976651115
  0.2018922478402201  0.0868299709121351  0.2499992960802266
  0.2018922547670533  0.0868299634586674  0.5833326462444046
  0.2018922460023281  0.0868299650565401  0.9166659652213096
  0.2018922347973393  0.5868299507466388  0.2499993054312215
  0.2018922287481650  0.5868299534189833  0.5833326387731145
  0.2018922279680580  0.5868299501090121  0.9166659730352410
  0.7018922322262420  0.0868299607386416  0.2499993167541611
  0.7018922328183709  0.0868299555443121  0.5833326278381619
  0.7018922317689386  0.0868299559043265  0.9166659685648466
  0.7018922142405175  0.5868299494971758  0.2499993058937772
  0.7018922117720616  0.5868299497353836  0.5833326416313468
  0.7018922142886184  0.5868299485668946  0.9166659611575353
  0.1655054043864506  0.3326276412938963  0.0833326263165298
  0.1655054108507823  0.3326276458491691  0.4166659809841715
  0.1655054082350674  0.3326276435657097  0.7499992920911788
  0.1655054005052758  0.8326276363605164  0.0833326404060432
  0.1655053915230631  0.8326276298051409  0.4166659655917323
  0.1655053908475382  0.8326276253605411  0.7499992973747882
  0.6655054211477474  0.3326276539461510  0.0833326225473820
  0.6655054174720841  0.3326276573911153  0.4166659690658935
  0.6655054194221950  0.3326276501176997  0.7499993006310171
  0.6655054061814047  0.8326276337976622  0.0833326445346588
  0.6655054059366146  0.8326276416624642  0.4166659636504457
  0.6655054020990119  0.8326276327453285  0.7499992885739575
  0.3321388878918827  0.1659507823204057  0.2499992675820757
  0.3321388801350788  0.1659507692347461  0.5833325862494591
  0.3321388875260287  0.1659507852090306  0.9166659229354173
  0.3321388910592694  0.6659507861935607  0.2499992685393499
  0.3321388860523650  0.6659507793415471  0.5833325847747838
  0.3321388794905497  0.6659507800918791  0.9166659331189055
  0.8321372883790285  0.1659504118040237  0.2499973114468148
  0.8321372889446055  0.1659504127007377  0.5833306663201872
  0.8321372848135157  0.1659504064760225  0.9166639889837516
  0.8321372977299737  0.6659504288385171  0.2499973211254724
  0.8321372905229923  0.6659504180783798  0.5833306579268508
  0.8321372988425016  0.6659504237911335  0.9166639842659848
  0.1638890655747145  0.0147652328429630  0.0833326272000557
  0.1638890800535477  0.0147652285188345  0.4166659558769436
  0.1638890713845101  0.0147652290369853  0.7499992889729979
  0.1638890854258307  0.5147652541426196  0.0833326272614052
  0.1638890758542672  0.5147652450610269  0.4166659571188054
  0.1638890731467612  0.5147652428128400  0.7499992856070367
  0.6638890713200631  0.0147652403038673  0.0833326332554034
  0.6638890585510053  0.0147652416901728  0.4166659569068405
  0.6638890800015379  0.0147652348942448  0.7499992778223517
  0.6638890701152727  0.5147652658612786  0.0833326355617658
  0.6638890750264762  0.5147652655492256  0.4166659591792384
  0.6638890672441162  0.5147652600977851  0.7499992718870767
  0.4833247442979549  0.1488921875744111  0.0833326891307343
  0.4833247485595402  0.1488921755459155  0.4166660254494269
  0.4833247493699791  0.1488921933154434  0.7499993570758224
  0.4833247464148650  0.6488921930181794  0.0833326885977212
  0.4833247413986775  0.6488921859532774  0.4166660358904204
  0.4833247393548197  0.6488921726674942  0.7499993579768169
  0.9833247638807842  0.1488921735182610  0.0833326908650413
  0.9833247701424950  0.1488922045389455  0.4166660196697410
  0.9833247677587881  0.1488921912192532  0.7499993587889950
  0.9833247609732276  0.6488921882769020  0.0833326964568475
  0.9833247614915448  0.6488921830721865  0.4166660304191896
  0.9833247559370846  0.6488921694947517  0.7499993464992897
  0.3492591073602465  0.3342337240613846  0.0833326461761007
  0.3492591095528541  0.3342337339481841  0.4166659784063310
  0.3492591197251367  0.3342337386714238  0.7499993127272889
  0.3492591072339479  0.8342337203218070  0.0833326427077026
  0.3492591245970015  0.8342337363430156  0.4166659892070344
  0.3492591047100857  0.8342337185200409  0.7499993060013007
  0.8492591258004066  0.3342337320477530  0.0833326411937033
  0.8492591247056643  0.3342337261983281  0.4166659850510885
  0.8492591466346353  0.3342337447659794  0.7499993098800574
  0.8492591450019430  0.8342337214146339  0.0833326528817575
  0.8492591312332962  0.8342337179531510  0.4166659624387919
  0.8492591328092178  0.8342337204253060  0.7499993184491348
  0.3337478841281264  0.4837944852239244  0.2499993744000475
  0.3337478938849867  0.4837944796004806  0.5833326835272689
  0.3337478825852114  0.4837944902668757  0.9166660043576146
  0.3337478799114890  0.9837944743376510  0.2499993579865032
  0.3337478710123988  0.9837944665542255  0.5833326947771916
  0.3337478731589236  0.9837944662954549  0.9166660121085233
  0.8337479005762266  0.4837945068830845  0.2499993481222232
  0.8337479083115013  0.4837945016756817  0.5833326946400630
  0.8337479114305467  0.4837944934972412  0.9166660119652762
  0.8337478943417250  0.9837944861204049  0.2499993575995406
  0.8337478702002523  0.9837944818388072  0.5833326881849108
  0.8337478891560406  0.9837944815357894  0.9166660170916550
  0.0143122209881813  0.3497188304999531  0.2499993141555092
  0.0143122218350911  0.3497188321340864  0.5833326327470818
  0.0143122187672196  0.3497188299935288  0.9166659734101713
  0.0143122103258311  0.8497188345107366  0.2499992996015103
  0.0143122061947758  0.8497188003774910  0.5833326311438156
  0.0143122107308567  0.8497188178829129  0.9166659849234596
  0.5143121956501887  0.3497188241811519  0.2499993030237721
  0.5143122019917363  0.3497188242334938  0.5833326389451675
  0.5143122004302022  0.3497188229364830  0.9166659838453742
  0.5143122029262552  0.8497188203337994  0.2499993157237567
  0.5143121984613275  0.8497188127297768  0.5833326274069625
  0.5143121947362240  0.8497188157093112  0.9166659740615425
  0.1484084001877038  0.1643502442531080  0.2499993402209825
  0.1484084253244945  0.1643502627701380  0.5833326698876513
  0.1484083948352295  0.1643502356607571  0.9166660159234127
  0.1484084031035154  0.6643502400520602  0.2499993566381695
  0.1484083990555283  0.6643502411692060  0.5833326725980997
  0.1484084018826436  0.6643502419714875  0.9166660002932996
  0.6484083960037101  0.1643502359064504  0.2499993456123085
  0.6484084133177288  0.1643502442834090  0.5833326848758339
  0.6484084043666615  0.1643502420049971  0.9166659993523838
  0.6484083883968339  0.6643502302061083  0.2499993479905790
  0.6484083931081434  0.6643502370072991  0.5833326755592511
  0.6484083943651719  0.6643502433268144  0.9166660020660301
 
  0.00000000E+00  0.00000000E+00  0.00000000E+00
  0.00000000E+00  0.00000000E+00  0.00000000E+00
  0.00000000E+00  0.00000000E+00  0.00000000E+00
  0.00000000E+00  0.00000000E+00  0.00000000E+00
  0.00000000E+00  0.00000000E+00  0.00000000E+00
  0.00000000E+00  0.00000000E+00  0.00000000E+00
  0.00000000E+00  0.00000000E+00  0.00000000E+00
  0.00000000E+00  0.00000000E+00  0.00000000E+00
  0.00000000E+00  0.00000000E+00  0.00000000E+00
  0.00000000E+00  0.00000000E+00  0.00000000E+00
  0.00000000E+00  0.00000000E+00  0.00000000E+00
  0.00000000E+00  0.00000000E+00  0.00000000E+00
  0.00000000E+00  0.00000000E+00  0.00000000E+00
  0.00000000E+00  0.00000000E+00  0.00000000E+00
  0.00000000E+00  0.00000000E+00  0.00000000E+00
  0.00000000E+00  0.00000000E+00  0.00000000E+00
  0.00000000E+00  0.00000000E+00  0.00000000E+00
  0.00000000E+00  0.00000000E+00  0.00000000E+00
  0.00000000E+00  0.00000000E+00  0.00000000E+00
  0.00000000E+00  0.00000000E+00  0.00000000E+00
  0.00000000E+00  0.00000000E+00  0.00000000E+00
  0.00000000E+00  0.00000000E+00  0.00000000E+00
  0.00000000E+00  0.00000000E+00  0.00000000E+00
  0.00000000E+00  0.00000000E+00  0.00000000E+00
  0.00000000E+00  0.00000000E+00  0.00000000E+00
  0.00000000E+00  0.00000000E+00  0.00000000E+00
  0.00000000E+00  0.00000000E+00  0.00000000E+00
  0.00000000E+00  0.00000000E+00  0.00000000E+00
  0.00000000E+00  0.00000000E+00  0.00000000E+00
  0.00000000E+00  0.00000000E+00  0.00000000E+00
  0.00000000E+00  0.00000000E+00  0.00000000E+00
  0.00000000E+00  0.00000000E+00  0.00000000E+00
  0.00000000E+00  0.00000000E+00  0.00000000E+00
  0.00000000E+00  0.00000000E+00  0.00000000E+00
  0.00000000E+00  0.00000000E+00  0.00000000E+00
  0.00000000E+00  0.00000000E+00  0.00000000E+00
  0.00000000E+00  0.00000000E+00  0.00000000E+00
  0.00000000E+00  0.00000000E+00  0.00000000E+00
  0.00000000E+00  0.00000000E+00  0.00000000E+00
  0.00000000E+00  0.00000000E+00  0.00000000E+00
  0.00000000E+00  0.00000000E+00  0.00000000E+00
  0.00000000E+00  0.00000000E+00  0.00000000E+00
  0.00000000E+00  0.00000000E+00  0.00000000E+00
  0.00000000E+00  0.00000000E+00  0.00000000E+00
  0.00000000E+00  0.00000000E+00  0.00000000E+00
  0.00000000E+00  0.00000000E+00  0.00000000E+00
  0.00000000E+00  0.00000000E+00  0.00000000E+00
  0.00000000E+00  0.00000000E+00  0.00000000E+00
  0.00000000E+00  0.00000000E+00  0.00000000E+00
  0.00000000E+00  0.00000000E+00  0.00000000E+00
  0.00000000E+00  0.00000000E+00  0.00000000E+00
  0.00000000E+00  0.00000000E+00  0.00000000E+00
  0.00000000E+00  0.00000000E+00  0.00000000E+00
  0.00000000E+00  0.00000000E+00  0.00000000E+00
  0.00000000E+00  0.00000000E+00  0.00000000E+00
  0.00000000E+00  0.00000000E+00  0.00000000E+00
  0.00000000E+00  0.00000000E+00  0.00000000E+00
  0.00000000E+00  0.00000000E+00  0.00000000E+00
  0.00000000E+00  0.00000000E+00  0.00000000E+00
  0.00000000E+00  0.00000000E+00  0.00000000E+00
  0.00000000E+00  0.00000000E+00  0.00000000E+00
  0.00000000E+00  0.00000000E+00  0.00000000E+00
  0.00000000E+00  0.00000000E+00  0.00000000E+00
  0.00000000E+00  0.00000000E+00  0.00000000E+00
  0.00000000E+00  0.00000000E+00  0.00000000E+00
  0.00000000E+00  0.00000000E+00  0.00000000E+00
  0.00000000E+00  0.00000000E+00  0.00000000E+00
  0.00000000E+00  0.00000000E+00  0.00000000E+00
  0.00000000E+00  0.00000000E+00  0.00000000E+00
  0.00000000E+00  0.00000000E+00  0.00000000E+00
  0.00000000E+00  0.00000000E+00  0.00000000E+00
  0.00000000E+00  0.00000000E+00  0.00000000E+00
  0.00000000E+00  0.00000000E+00  0.00000000E+00
  0.00000000E+00  0.00000000E+00  0.00000000E+00
  0.00000000E+00  0.00000000E+00  0.00000000E+00
  0.00000000E+00  0.00000000E+00  0.00000000E+00
  0.00000000E+00  0.00000000E+00  0.00000000E+00
  0.00000000E+00  0.00000000E+00  0.00000000E+00
  0.00000000E+00  0.00000000E+00  0.00000000E+00
  0.00000000E+00  0.00000000E+00  0.00000000E+00
  0.00000000E+00  0.00000000E+00  0.00000000E+00
  0.00000000E+00  0.00000000E+00  0.00000000E+00
  0.00000000E+00  0.00000000E+00  0.00000000E+00
  0.00000000E+00  0.00000000E+00  0.00000000E+00
  0.00000000E+00  0.00000000E+00  0.00000000E+00
  0.00000000E+00  0.00000000E+00  0.00000000E+00
  0.00000000E+00  0.00000000E+00  0.00000000E+00
  0.00000000E+00  0.00000000E+00  0.00000000E+00
  0.00000000E+00  0.00000000E+00  0.00000000E+00
  0.00000000E+00  0.00000000E+00  0.00000000E+00
  0.00000000E+00  0.00000000E+00  0.00000000E+00
  0.00000000E+00  0.00000000E+00  0.00000000E+00
  0.00000000E+00  0.00000000E+00  0.00000000E+00
  0.00000000E+00  0.00000000E+00  0.00000000E+00
  0.00000000E+00  0.00000000E+00  0.00000000E+00
  0.00000000E+00  0.00000000E+00  0.00000000E+00
  0.00000000E+00  0.00000000E+00  0.00000000E+00
  0.00000000E+00  0.00000000E+00  0.00000000E+00
  0.00000000E+00  0.00000000E+00  0.00000000E+00
  0.00000000E+00  0.00000000E+00  0.00000000E+00
  0.00000000E+00  0.00000000E+00  0.00000000E+00
  0.00000000E+00  0.00000000E+00  0.00000000E+00
  0.00000000E+00  0.00000000E+00  0.00000000E+00
  0.00000000E+00  0.00000000E+00  0.00000000E+00
  0.00000000E+00  0.00000000E+00  0.00000000E+00
  0.00000000E+00  0.00000000E+00  0.00000000E+00
  0.00000000E+00  0.00000000E+00  0.00000000E+00
  0.00000000E+00  0.00000000E+00  0.00000000E+00
  0.00000000E+00  0.00000000E+00  0.00000000E+00
  0.00000000E+00  0.00000000E+00  0.00000000E+00
  0.00000000E+00  0.00000000E+00  0.00000000E+00
  0.00000000E+00  0.00000000E+00  0.00000000E+00
  0.00000000E+00  0.00000000E+00  0.00000000E+00
  0.00000000E+00  0.00000000E+00  0.00000000E+00
  0.00000000E+00  0.00000000E+00  0.00000000E+00
  0.00000000E+00  0.00000000E+00  0.00000000E+00
  0.00000000E+00  0.00000000E+00  0.00000000E+00
  0.00000000E+00  0.00000000E+00  0.00000000E+00
  0.00000000E+00  0.00000000E+00  0.00000000E+00
  0.00000000E+00  0.00000000E+00  0.00000000E+00
  0.00000000E+00  0.00000000E+00  0.00000000E+00
  0.00000000E+00  0.00000000E+00  0.00000000E+00
  0.00000000E+00  0.00000000E+00  0.00000000E+00
  0.00000000E+00  0.00000000E+00  0.00000000E+00
  0.00000000E+00  0.00000000E+00  0.00000000E+00
  0.00000000E+00  0.00000000E+00  0.00000000E+00
  0.00000000E+00  0.00000000E+00  0.00000000E+00
  0.00000000E+00  0.00000000E+00  0.00000000E+00
  0.00000000E+00  0.00000000E+00  0.00000000E+00
  0.00000000E+00  0.00000000E+00  0.00000000E+00
  0.00000000E+00  0.00000000E+00  0.00000000E+00
  0.00000000E+00  0.00000000E+00  0.00000000E+00
  0.00000000E+00  0.00000000E+00  0.00000000E+00
  0.00000000E+00  0.00000000E+00  0.00000000E+00
  0.00000000E+00  0.00000000E+00  0.00000000E+00
  0.00000000E+00  0.00000000E+00  0.00000000E+00
  0.00000000E+00  0.00000000E+00  0.00000000E+00
  0.00000000E+00  0.00000000E+00  0.00000000E+00
  0.00000000E+00  0.00000000E+00  0.00000000E+00
  0.00000000E+00  0.00000000E+00  0.00000000E+00
  0.00000000E+00  0.00000000E+00  0.00000000E+00
  0.00000000E+00  0.00000000E+00  0.00000000E+00
  0.00000000E+00  0.00000000E+00  0.00000000E+00
  0.00000000E+00  0.00000000E+00  0.00000000E+00
  0.00000000E+00  0.00000000E+00  0.00000000E+00
  0.00000000E+00  0.00000000E+00  0.00000000E+00
  0.00000000E+00  0.00000000E+00  0.00000000E+00
  0.00000000E+00  0.00000000E+00  0.00000000E+00
  0.00000000E+00  0.00000000E+00  0.00000000E+00
  0.00000000E+00  0.00000000E+00  0.00000000E+00
  0.00000000E+00  0.00000000E+00  0.00000000E+00
  0.00000000E+00  0.00000000E+00  0.00000000E+00
  0.00000000E+00  0.00000000E+00  0.00000000E+00
  0.00000000E+00  0.00000000E+00  0.00000000E+00
  0.00000000E+00  0.00000000E+00  0.00000000E+00
  0.00000000E+00  0.00000000E+00  0.00000000E+00
  0.00000000E+00  0.00000000E+00  0.00000000E+00
  0.00000000E+00  0.00000000E+00  0.00000000E+00
  0.00000000E+00  0.00000000E+00  0.00000000E+00
  0.00000000E+00  0.00000000E+00  0.00000000E+00
  0.00000000E+00  0.00000000E+00  0.00000000E+00
  0.00000000E+00  0.00000000E+00  0.00000000E+00
  0.00000000E+00  0.00000000E+00  0.00000000E+00
  0.00000000E+00  0.00000000E+00  0.00000000E+00
  0.00000000E+00  0.00000000E+00  0.00000000E+00
  0.00000000E+00  0.00000000E+00  0.00000000E+00
  0.00000000E+00  0.00000000E+00  0.00000000E+00
  0.00000000E+00  0.00000000E+00  0.00000000E+00
