Beta-Si3N4, CH3*                        
   1.00000000000000     
     7.6664503359999996    0.0000000000000000    0.0000000000000000
    -3.8332250580000000    6.6393405579999998    0.0000000000000000
     0.0000000000000000    0.0000000000000000   29.2392359999999982
   Si   N    H    C    F 
    24    32     9     0     3
Selective dynamics
Direct
  0.1739744554302192  0.7732865869960079  0.0596944119880547   F   F   F
  0.5960002906953932  0.8296819468557857  0.0596944119880547   F   F   F
  0.2303296918685191  0.4076004200054442  0.0596944461886793   F   F   F
  0.7751661739894187  0.5970762803797430  0.1086445853151866   T   T   T
  0.4065446026939737  0.1807319875089536  0.1084131816695465   T   T   T
  0.8238573835792533  0.2283462278042118  0.1086635574786805   T   T   T
  0.1821288866795706  0.7766445845280421  0.1595187718420289   T   T   T
  0.2279556201628760  0.4074195810816612  0.1595085376069886   T   T   T
  0.5967295528689246  0.8219235612700199  0.1595921055266064   T   T   T
  0.7756903154007460  0.5959131981200497  0.2089221772582568   T   T   T
  0.4083052423209885  0.1809411076826844  0.2088067009568987   T   T   T
  0.8233440773939428  0.2284703724074598  0.2089331610069693   T   T   T
  0.1816409892069744  0.7753026337407160  0.2591705421658089   T   T   T
  0.2289840739699783  0.4069433354050683  0.2591957181634890   T   T   T
  0.5973077572868295  0.8226019736503647  0.2592455300007596   T   T   T
  0.7763802213607809  0.5957705505120762  0.3086010281357768   T   T   T
  0.4084583013948282  0.1807143881853923  0.3085359757671094   T   T   T
  0.8235096713570913  0.2278365361837376  0.3086224200268268   T   T   T
  0.1812397910073304  0.7748672813515870  0.3593927068905304   T   T   T
  0.2293166834384607  0.4060912501906497  0.3594146483927564   T   T   T
  0.5980847238682513  0.8229248162382491  0.3594545016509974   T   T   T
  0.7703789036670168  0.5915612214565407  0.4077229129613540   T   T   T
  0.4125698764092494  0.1782343942290388  0.4076755353581286   T   T   T
  0.8258795201883958  0.2337261544551336  0.4077459997420148   T   T   T
  0.3301448750201388  0.0297043054618342  0.0596943777874372   F   F   F
  0.7038897061160228  0.6736534993088696  0.0596943777874372   F   F   F
  0.3334875123478724  0.6702010479999245  0.0596944119880547   F   F   F
  0.9739240296780594  0.2999508735246863  0.0596944119880547   F   F   F
  0.6687394188094374  0.3351320060225760  0.1042966781020518   T   T   T
  0.0356846910771295  0.7101654409523573  0.1103277860172722   T   T   T
  0.6754972894271458  0.9680299394221045  0.1103026735648978   T   T   T
  0.2943112078746785  0.3291192057862357  0.1100142647396380   T   T   T
  0.3369468203632109  0.0381577786545423  0.1588813860819068   T   T   T
  0.7028767867651224  0.6667449700741573  0.1591458913165646   T   T   T
  0.3354902324946838  0.6687101241249627  0.1593830933610728   T   T   T
  0.9664250793956911  0.3008426700175867  0.1590430465322019   T   T   T
  0.6691573687744334  0.3350857912901372  0.2085484542585895   T   T   T
  0.0373743298073211  0.7065420568837752  0.2093349423268673   T   T   T
  0.6722248606147009  0.9668270840897959  0.2093871447032398   T   T   T
  0.2978064261020480  0.3320702840467208  0.2092768897471207   T   T   T
  0.3346312385878565  0.0366067267966909  0.2587176345640255   T   T   T
  0.7055952091204132  0.6696141225361414  0.2588693088859959   T   T   T
  0.3359722681079254  0.6682818564455983  0.2598940086919287   T   T   T
  0.9676729774212559  0.2985615723231645  0.2588167848503785   T   T   T
  0.6694541421262686  0.3347695021878122  0.3090507117291624   T   T   T
  0.0384259534583064  0.7064219061320937  0.3090691471259746   T   T   T
  0.6720893546354229  0.9658090593109513  0.3091363631839812   T   T   T
  0.2978016561747844  0.3321128297767955  0.3090407954472620   T   T   T
  0.3362103456660940  0.6679578822385013  0.3634811689218687   T   T   T
  0.3383268228279538  0.0356017999891468  0.3580962118897069   T   T   T
  0.7017342032658213  0.6658624662030693  0.3581923351449458   T   T   T
  0.9685723439737718  0.3024248476781594  0.3581751849773432   T   T   T
  0.6696024382136360  0.3344983365956786  0.4128216636774872   T   T   T
  0.0259867987066037  0.7027403216810898  0.4067872039496990   T   T   T
  0.6814717254848967  0.9781429517662044  0.4068399446805374   T   T   T
  0.3014805249908721  0.3227522272456979  0.4067637880647004   T   T   T
  0.0336444869709769  0.6965211445967251  0.0200503005831371   T   T   T
  0.6614388647055670  0.9698763598109873  0.0200140665517037   T   T   T
  0.3079580642355370  0.3447817329721691  0.0199698125273985   T   T   T
  0.4255434637801890  0.0923556244474707  0.0327338805079675   T   T   T
  0.6622349042227319  0.5726396396704349  0.0335882163251530   T   T   T
  0.9110036075812097  0.3354711366744231  0.0332170038943697   T   T   T
  0.0953742265274058  0.6965055805011882  0.4359469406209712   T   T   T
  0.6067955530648184  0.9086545768823883  0.4360814998410358   T   T   T
  0.3076997742808750  0.3981563011886765  0.4359614785901044   T   T   T
  0.6939133491442747  0.6593505699110148  0.4524323825697308   T   T   T
  0.3445376859115775  0.0338051645376123  0.4523522197997375   T   T   T
  0.9701645288793690  0.3100252925110016  0.4524440682222547   T   T   T
 
  0.00000000E+00  0.00000000E+00  0.00000000E+00
  0.00000000E+00  0.00000000E+00  0.00000000E+00
  0.00000000E+00  0.00000000E+00  0.00000000E+00
  0.00000000E+00  0.00000000E+00  0.00000000E+00
  0.00000000E+00  0.00000000E+00  0.00000000E+00
  0.00000000E+00  0.00000000E+00  0.00000000E+00
  0.00000000E+00  0.00000000E+00  0.00000000E+00
  0.00000000E+00  0.00000000E+00  0.00000000E+00
  0.00000000E+00  0.00000000E+00  0.00000000E+00
  0.00000000E+00  0.00000000E+00  0.00000000E+00
  0.00000000E+00  0.00000000E+00  0.00000000E+00
  0.00000000E+00  0.00000000E+00  0.00000000E+00
  0.00000000E+00  0.00000000E+00  0.00000000E+00
  0.00000000E+00  0.00000000E+00  0.00000000E+00
  0.00000000E+00  0.00000000E+00  0.00000000E+00
  0.00000000E+00  0.00000000E+00  0.00000000E+00
  0.00000000E+00  0.00000000E+00  0.00000000E+00
  0.00000000E+00  0.00000000E+00  0.00000000E+00
  0.00000000E+00  0.00000000E+00  0.00000000E+00
  0.00000000E+00  0.00000000E+00  0.00000000E+00
  0.00000000E+00  0.00000000E+00  0.00000000E+00
  0.00000000E+00  0.00000000E+00  0.00000000E+00
  0.00000000E+00  0.00000000E+00  0.00000000E+00
  0.00000000E+00  0.00000000E+00  0.00000000E+00
  0.00000000E+00  0.00000000E+00  0.00000000E+00
  0.00000000E+00  0.00000000E+00  0.00000000E+00
  0.00000000E+00  0.00000000E+00  0.00000000E+00
  0.00000000E+00  0.00000000E+00  0.00000000E+00
  0.00000000E+00  0.00000000E+00  0.00000000E+00
  0.00000000E+00  0.00000000E+00  0.00000000E+00
  0.00000000E+00  0.00000000E+00  0.00000000E+00
  0.00000000E+00  0.00000000E+00  0.00000000E+00
  0.00000000E+00  0.00000000E+00  0.00000000E+00
  0.00000000E+00  0.00000000E+00  0.00000000E+00
  0.00000000E+00  0.00000000E+00  0.00000000E+00
  0.00000000E+00  0.00000000E+00  0.00000000E+00
  0.00000000E+00  0.00000000E+00  0.00000000E+00
  0.00000000E+00  0.00000000E+00  0.00000000E+00
  0.00000000E+00  0.00000000E+00  0.00000000E+00
  0.00000000E+00  0.00000000E+00  0.00000000E+00
  0.00000000E+00  0.00000000E+00  0.00000000E+00
  0.00000000E+00  0.00000000E+00  0.00000000E+00
  0.00000000E+00  0.00000000E+00  0.00000000E+00
  0.00000000E+00  0.00000000E+00  0.00000000E+00
  0.00000000E+00  0.00000000E+00  0.00000000E+00
  0.00000000E+00  0.00000000E+00  0.00000000E+00
  0.00000000E+00  0.00000000E+00  0.00000000E+00
  0.00000000E+00  0.00000000E+00  0.00000000E+00
  0.00000000E+00  0.00000000E+00  0.00000000E+00
  0.00000000E+00  0.00000000E+00  0.00000000E+00
  0.00000000E+00  0.00000000E+00  0.00000000E+00
  0.00000000E+00  0.00000000E+00  0.00000000E+00
  0.00000000E+00  0.00000000E+00  0.00000000E+00
  0.00000000E+00  0.00000000E+00  0.00000000E+00
  0.00000000E+00  0.00000000E+00  0.00000000E+00
  0.00000000E+00  0.00000000E+00  0.00000000E+00
  0.00000000E+00  0.00000000E+00  0.00000000E+00
  0.00000000E+00  0.00000000E+00  0.00000000E+00
  0.00000000E+00  0.00000000E+00  0.00000000E+00
  0.00000000E+00  0.00000000E+00  0.00000000E+00
  0.00000000E+00  0.00000000E+00  0.00000000E+00
  0.00000000E+00  0.00000000E+00  0.00000000E+00
  0.00000000E+00  0.00000000E+00  0.00000000E+00
  0.00000000E+00  0.00000000E+00  0.00000000E+00
  0.00000000E+00  0.00000000E+00  0.00000000E+00
  0.00000000E+00  0.00000000E+00  0.00000000E+00
  0.00000000E+00  0.00000000E+00  0.00000000E+00
  0.00000000E+00  0.00000000E+00  0.00000000E+00
