Beta-Si3N4                              
   1.00000000000000     
     7.6664503359999996    0.0000000000000000    0.0000000000000000
    -3.8332250580000000    6.6393405579999998    0.0000000000000000
     0.0000000000000000    0.0000000000000000   29.2392359999999982
   Si   N    H 
    24    35    15
Selective dynamics
Direct
  0.1739744554302192  0.7732865869960079  0.0596944119880547   F   F   F
  0.5960002906953932  0.8296819468557857  0.0596944119880547   F   F   F
  0.2303296918685191  0.4076004200054442  0.0596944461886793   F   F   F
  0.7733749808676779  0.5961988680735063  0.1084072624778636   T   T   T
  0.4073858995326488  0.1800381233381157  0.1081680904974805   T   T   T
  0.8244721677510940  0.2302179006233036  0.1083788803313530   T   T   T
  0.1800804799828238  0.7743280109448004  0.1590571843507513   T   T   T
  0.2301409371863284  0.4083340727687205  0.1590010678108643   T   T   T
  0.5958236745596073  0.8239108337234419  0.1590866536737722   T   T   T
  0.7728064627518649  0.5958517449323294  0.2084386451255179   T   T   T
  0.4082623357889313  0.1791666139979261  0.2083254907452389   T   T   T
  0.8249935420305018  0.2313063506421283  0.2084066940065246   T   T   T
  0.1795630628650154  0.7735112333262338  0.2581998772940659   T   T   T
  0.2306360557002156  0.4081205590483230  0.2581828592341079   T   T   T
  0.5959902685285300  0.8245674797895208  0.2582200950262364   T   T   T
  0.7743470085927775  0.5966350772759156  0.3081500078101698   T   T   T
  0.4074391538981487  0.1796488415269662  0.3080982173388497   T   T   T
  0.8244113894790653  0.2297277731869275  0.3081381520765843   T   T   T
  0.1790570664413771  0.7728683148683902  0.3578706397020500   T   T   T
  0.2311514676168780  0.4080197353754347  0.3578645337000329   T   T   T
  0.5959851984742774  0.8249767271452766  0.3578891439418694   T   T   T
  0.7686668044858818  0.5937208096126477  0.4077625787446945   T   T   T
  0.4102540865116261  0.1767162892363986  0.4077303067452235   T   T   T
  0.8272488895931270  0.2353126538895660  0.4077573073894021   T   T   T
  0.3301448750201388  0.0297043054618342  0.0596943777874372   F   F   F
  0.7038897061160228  0.6736534993088696  0.0596943777874372   F   F   F
  0.3334875123478724  0.6702010479999245  0.0596944119880547   F   F   F
  0.9739240296780594  0.2999508735246863  0.0596944119880547   F   F   F
  0.6685941803787382  0.3352355948240074  0.1044719637722338   T   T   T
  0.0340060064776770  0.7071597645463854  0.1098944020430675   T   T   T
  0.6741694444053833  0.9697438243730006  0.1098315016012816   T   T   T
  0.2971198939854017  0.3305751883491507  0.1095685279462714   T   T   T
  0.3356078995785263  0.0360554504105915  0.1583659081538663   T   T   T
  0.7015242018024259  0.6681012962861285  0.1585931252722003   T   T   T
  0.3352733925940422  0.6689245930754725  0.1590094054774231   T   T   T
  0.9684095760013857  0.3022912622887562  0.1584965517050033   T   T   T
  0.6687048624816823  0.3354125672801602  0.2079910804665536   T   T   T
  0.0346116215240742  0.7050649547729660  0.2085694629245200   T   T   T
  0.6723494462714346  0.9695438289380942  0.2085724438988008   T   T   T
  0.2991463862340072  0.3318114949499122  0.2085113290598593   T   T   T
  0.3341757630925514  0.0351494208644268  0.2581715617616688   T   T   T
  0.7029781380995638  0.6699376341239704  0.2582678293847060   T   T   T
  0.3353968434290278  0.6687314542915128  0.2586841883508585   T   T   T
  0.9689925127388060  0.3010664150640819  0.2582283111103645   T   T   T
  0.6687284059330016  0.3353328580526870  0.3093460228372761   T   T   T
  0.0358941186800020  0.7042678157034030  0.3076872105808266   T   T   T
  0.6704692799076162  0.9682055836395371  0.3077061375964810   T   T   T
  0.2998039573793748  0.3335536044779201  0.3076644804158676   T   T   T
  0.3353995382137666  0.6686149336965115  0.3612920713048831   T   T   T
  0.3303140794737268  0.0341449291690328  0.3576916773196472   T   T   T
  0.7060129754851487  0.6737306314650738  0.3577408112667290   T   T   T
  0.9698679916779213  0.2979957395678791  0.3577256418779734   T   T   T
  0.6687099448625212  0.3352398014393691  0.4133319006219033   T   T   T
  0.0258508686933116  0.6933920206760041  0.4053461558187453   T   T   T
  0.6697179653878683  0.9781479003011538  0.4053660619907675   T   T   T
  0.3105998608052092  0.3342308166419366  0.4053314233413067   T   T   T
  0.6808686247850886  0.6601518115878973  0.4556487155186550   T   T   T
  0.3437176863183966  0.0223864687444748  0.4556011479221466   T   T   T
  0.9815602526591047  0.3231133752105154  0.4556334132125693   T   T   T
  0.0401684466697665  0.7023905533225230  0.0189103348969134   T   T   T
  0.6603943260966759  0.9634582473727241  0.0189084168851849   T   T   T
  0.3026996570770976  0.3455900582391728  0.0188929681867091   T   T   T
  0.4106487981642152  0.0966908056363192  0.0309609678306258   T   T   T
  0.6747559480473548  0.5821952758042966  0.0321176507878158   T   T   T
  0.9076854595100609  0.3203208606970775  0.0316204626332696   T   T   T
  0.0724438664521702  0.6217405860123835  0.4279102599425869   T   T   T
  0.5514773729701697  0.9315855204995089  0.4279314154302277   T   T   T
  0.3822307412691425  0.4524300169527642  0.4279083770522807   T   T   T
  0.7215794538557158  0.8081556550213368  0.4586041186630517   T   T   T
  0.1957040605834878  0.9150317679821670  0.4585210091775106   T   T   T
  0.0888406749733951  0.2823712313185341  0.4585539871664674   T   T   T
  0.6956042427398529  0.6017158829128934  0.4856785972861734   T   T   T
  0.4019919847465400  0.0954863225838559  0.4856451490660504   T   T   T
  0.9083721625558695  0.3081536390460187  0.4856724890954178   T   T   T
 
  0.00000000E+00  0.00000000E+00  0.00000000E+00
  0.00000000E+00  0.00000000E+00  0.00000000E+00
  0.00000000E+00  0.00000000E+00  0.00000000E+00
  0.00000000E+00  0.00000000E+00  0.00000000E+00
  0.00000000E+00  0.00000000E+00  0.00000000E+00
  0.00000000E+00  0.00000000E+00  0.00000000E+00
  0.00000000E+00  0.00000000E+00  0.00000000E+00
  0.00000000E+00  0.00000000E+00  0.00000000E+00
  0.00000000E+00  0.00000000E+00  0.00000000E+00
  0.00000000E+00  0.00000000E+00  0.00000000E+00
  0.00000000E+00  0.00000000E+00  0.00000000E+00
  0.00000000E+00  0.00000000E+00  0.00000000E+00
  0.00000000E+00  0.00000000E+00  0.00000000E+00
  0.00000000E+00  0.00000000E+00  0.00000000E+00
  0.00000000E+00  0.00000000E+00  0.00000000E+00
  0.00000000E+00  0.00000000E+00  0.00000000E+00
  0.00000000E+00  0.00000000E+00  0.00000000E+00
  0.00000000E+00  0.00000000E+00  0.00000000E+00
  0.00000000E+00  0.00000000E+00  0.00000000E+00
  0.00000000E+00  0.00000000E+00  0.00000000E+00
  0.00000000E+00  0.00000000E+00  0.00000000E+00
  0.00000000E+00  0.00000000E+00  0.00000000E+00
  0.00000000E+00  0.00000000E+00  0.00000000E+00
  0.00000000E+00  0.00000000E+00  0.00000000E+00
  0.00000000E+00  0.00000000E+00  0.00000000E+00
  0.00000000E+00  0.00000000E+00  0.00000000E+00
  0.00000000E+00  0.00000000E+00  0.00000000E+00
  0.00000000E+00  0.00000000E+00  0.00000000E+00
  0.00000000E+00  0.00000000E+00  0.00000000E+00
  0.00000000E+00  0.00000000E+00  0.00000000E+00
  0.00000000E+00  0.00000000E+00  0.00000000E+00
  0.00000000E+00  0.00000000E+00  0.00000000E+00
  0.00000000E+00  0.00000000E+00  0.00000000E+00
  0.00000000E+00  0.00000000E+00  0.00000000E+00
  0.00000000E+00  0.00000000E+00  0.00000000E+00
  0.00000000E+00  0.00000000E+00  0.00000000E+00
  0.00000000E+00  0.00000000E+00  0.00000000E+00
  0.00000000E+00  0.00000000E+00  0.00000000E+00
  0.00000000E+00  0.00000000E+00  0.00000000E+00
  0.00000000E+00  0.00000000E+00  0.00000000E+00
  0.00000000E+00  0.00000000E+00  0.00000000E+00
  0.00000000E+00  0.00000000E+00  0.00000000E+00
  0.00000000E+00  0.00000000E+00  0.00000000E+00
  0.00000000E+00  0.00000000E+00  0.00000000E+00
  0.00000000E+00  0.00000000E+00  0.00000000E+00
  0.00000000E+00  0.00000000E+00  0.00000000E+00
  0.00000000E+00  0.00000000E+00  0.00000000E+00
  0.00000000E+00  0.00000000E+00  0.00000000E+00
  0.00000000E+00  0.00000000E+00  0.00000000E+00
  0.00000000E+00  0.00000000E+00  0.00000000E+00
  0.00000000E+00  0.00000000E+00  0.00000000E+00
  0.00000000E+00  0.00000000E+00  0.00000000E+00
  0.00000000E+00  0.00000000E+00  0.00000000E+00
  0.00000000E+00  0.00000000E+00  0.00000000E+00
  0.00000000E+00  0.00000000E+00  0.00000000E+00
  0.00000000E+00  0.00000000E+00  0.00000000E+00
  0.00000000E+00  0.00000000E+00  0.00000000E+00
  0.00000000E+00  0.00000000E+00  0.00000000E+00
  0.00000000E+00  0.00000000E+00  0.00000000E+00
  0.00000000E+00  0.00000000E+00  0.00000000E+00
  0.00000000E+00  0.00000000E+00  0.00000000E+00
  0.00000000E+00  0.00000000E+00  0.00000000E+00
  0.00000000E+00  0.00000000E+00  0.00000000E+00
  0.00000000E+00  0.00000000E+00  0.00000000E+00
  0.00000000E+00  0.00000000E+00  0.00000000E+00
  0.00000000E+00  0.00000000E+00  0.00000000E+00
  0.00000000E+00  0.00000000E+00  0.00000000E+00
  0.00000000E+00  0.00000000E+00  0.00000000E+00
  0.00000000E+00  0.00000000E+00  0.00000000E+00
  0.00000000E+00  0.00000000E+00  0.00000000E+00
  0.00000000E+00  0.00000000E+00  0.00000000E+00
  0.00000000E+00  0.00000000E+00  0.00000000E+00
  0.00000000E+00  0.00000000E+00  0.00000000E+00
  0.00000000E+00  0.00000000E+00  0.00000000E+00
