SiF4                                    
   1.00000000000000     
     7.6664503359999996    0.0000000000000000    0.0000000000000000
    -3.8332250580000000    6.6393405579999998    0.0000000000000000
     0.0000000000000000    0.0000000000000000   29.2392359999999982
   Si   N    H    C    F 
     0     0     0     1     4
Selective dynamics
Direct
  0.5000000000000000  0.5000000000000000  0.5000000000000000   F   F   F
  0.5790940532565731  0.7002040584466097  0.5041798499748806   T   T   T
  0.3089625403730340  0.4168042640235989  0.4851146455443528   T   T   T
  0.5027720585212045  0.4212739311906116  0.5408953212814388   T   T   T
  0.6091649116463662  0.4618476873595909  0.4698747085893100   T   T   T
 
  0.00000000E+00  0.00000000E+00  0.00000000E+00
  0.00000000E+00  0.00000000E+00  0.00000000E+00
  0.00000000E+00  0.00000000E+00  0.00000000E+00
  0.00000000E+00  0.00000000E+00  0.00000000E+00
  0.00000000E+00  0.00000000E+00  0.00000000E+00
